 vasp.6.3.2 27Jun22 (build Dec 02 2024 22:47:12) complex

 executed on             LinuxIFC date 2024.12.20  11:35:03

 INCAR:
   SYSTEM = DFT Groundstate Calculation
   ENCUT = 520
   EDIFF = 1E-8
   ISMEAR = 0
   SIGMA = 0.05
   KSPACING = 0.1
   IBRION = 2
   NSW = 50
   ISIF = 3
   LREAL = Auto

 POTCAR:   PAW_PBE Si 05Jan2001
|           W    W    AA    RRRRR   N    N  II  N    N   GGGG   !!!           |
|           W    W   A  A   R    R  NN   N  II  NN   N  G    G  !!!           |
|           W    W  A    A  R    R  N N  N  II  N N  N  G       !!!           |
|           W WW W  AAAAAA  RRRRR   N  N N  II  N  N N  G  GGG   !            |
|           WW  WW  A    A  R   R   N   NN  II  N   NN  G    G                |
|           W    W  A    A  R    R  N    N  II  N    N   GGGG   !!!           |
|     For optimal performance we recommend to set                             |
|       NCORE = 2 up to number-of-cores-per-socket                            |
|     This setting can greatly improve the performance of VASP for DFT.       |
|     The default, NCORE=1 might be grossly inefficient on modern             |
|     multi-core architectures or massively parallel machines. Do your        |
|     Unfortunately you need to use the default for GW and RPA                |
|     calculations (for HF NCORE is supported but not extensively tested      |
|     yet).                                                                   |

 POTCAR:   PAW_PBE Si 05Jan2001
   VRHFIN =Si: s2p2

   TITEL  = PAW_PBE Si 05Jan2001
   POMASS =   28.085; ZVAL   =    4.000    mass and valenz
   ENMAX  =  245.345; ENMIN  =  184.009 eV
   QCUT   =   -4.246; QGAM   =    8.493    optimization parameters

   Description
     l     E      TYP  RCUT    TYP  RCUT
     0   .000     23  1.900
     0   .000     23  1.900
     1   .000     23  1.900
     1   .000     23  1.900
     2   .000      7  1.900

 Optimization of the real space projectors (new method)

 maximal supplied QI-value         = 19.84
 optimisation between [QCUT,QGAM] = [ 11.51, 23.22] = [ 37.09,150.92] Ry
 Optimized for a Real-space Cutoff    1.08 Angstroem

   l    n(q)    QCUT    max X(q) W(low)/X(q) W(high)/X(q)  e(spline)
   0      7    11.508     8.708    0.43E-04    0.15E-04    0.69E-08
   0      7    11.508   106.241    0.42E-03    0.41E-03    0.87E-07
   1      7    11.508     5.901    0.37E-04    0.76E-04    0.15E-07
   1      7    11.508    73.241    0.48E-03    0.68E-04    0.67E-07
 PAW_PBE Si 05Jan2001                   :

 POSCAR: fcc Si:
  positions in cartesian coordinates
 exchange correlation table for  LEXCH =        8
   RHO(1)=    0.500       N(1)  =     2000
   RHO(2)=  100.500       N(2)  =     4000

 ion  position               nearest neighbor table
   1  0.000  0.000  0.000-

  LATTYP: Found a face centered cubic cell.
 ALAT       =     3.9000000000

  Lattice vectors:

 A1 = (   1.9500000000,   1.9500000000,   0.0000000000)
 A2 = (   0.0000000000,   1.9500000000,   1.9500000000)
 A3 = (   1.9500000000,   0.0000000000,   1.9500000000)

Analysis of symmetry for initial positions (statically):
 Subroutine PRICEL returns:
 Original cell was already a primitive cell.

 Routine SETGRP: Setting up the symmetry group for a
 face centered cubic supercell.

 Subroutine GETGRP returns: Found 48 space group operations
 (whereof 48 operations were pure point group operations)
 out of a pool of 48 trial point group operations.

The static configuration has the point symmetry O_h .

Analysis of symmetry for dynamics (positions and initial velocities):
 Subroutine PRICEL returns:
 Original cell was already a primitive cell.

 Routine SETGRP: Setting up the symmetry group for a
 face centered cubic supercell.

 Subroutine GETGRP returns: Found 48 space group operations
 (whereof 48 operations were pure point group operations)
 out of a pool of 48 trial point group operations.

The dynamic configuration has the point symmetry O_h .

 Subroutine INISYM returns: Found 48 space group operations
 (whereof 48 operations are pure point group operations),
 and found     1 'primitive' translations

                                     Primitive cell

  volume of cell :      14.8297

  direct lattice vectors                    reciprocal lattice vectors
     1.950000000  1.950000000  0.000000000     0.256410256  0.256410256 -0.256410256
     0.000000000  1.950000000  1.950000000    -0.256410256  0.256410256  0.256410256
     1.950000000  0.000000000  1.950000000     0.256410256 -0.256410256  0.256410256

  length of vectors
     2.757716447  2.757716447  2.757716447     0.444115592  0.444115592  0.444115592

  position of ions in fractional coordinates (direct lattice)
     0.000000000  0.000000000  0.000000000

  ion indices of the primitive-cell ions
   primitive index   ion index
                 1           1

Automatic generation of k-mesh.
 Grid dimensions derived from KSPACING:
 generate k-points for:   28   28   28

 Generating k-lattice:

  Cartesian coordinates                     Fractional coordinates (reciprocal lattice)
     0.009157509  0.009157509 -0.009157509     0.035714286 -0.000000000 -0.000000000
    -0.009157509  0.009157509  0.009157509    -0.000000000  0.035714286  0.000000000
     0.009157509 -0.009157509  0.009157509     0.000000000  0.000000000  0.035714286

  Length of vectors
     0.015861271  0.015861271  0.015861271

  Shift w.r.t. Gamma in fractional coordinates (k-lattice)
     0.000000000  0.000000000  0.000000000

 Subroutine IBZKPT returns following result:

 Found    624 irreducible k-points:

 Following reciprocal coordinates:
            Coordinates               Weight
  0.000000  0.000000  0.000000      1.000000
  0.035714  0.000000 -0.000000      8.000000
  0.071429 -0.000000  0.000000      8.000000
  0.107143 -0.000000 -0.000000      8.000000
  0.142857  0.000000  0.000000      8.000000
  0.178571 -0.000000 -0.000000      8.000000
  0.214286  0.000000  0.000000      8.000000
  0.250000 -0.000000  0.000000      8.000000
  0.285714  0.000000 -0.000000      8.000000
  0.321429  0.000000  0.000000      8.000000
  0.357143 -0.000000 -0.000000      8.000000
  0.392857  0.000000  0.000000      8.000000
  0.428571  0.000000 -0.000000      8.000000
  0.464286  0.000000  0.000000      8.000000
  0.500000 -0.000000  0.000000      4.000000
  0.035714  0.035714  0.000000      6.000000
  0.071429  0.035714 -0.000000     24.000000
  0.107143  0.035714  0.000000     24.000000
  0.142857  0.035714 -0.000000     24.000000
  0.178571  0.035714  0.000000     24.000000
  0.214286  0.035714 -0.000000     24.000000
  0.250000  0.035714  0.000000     24.000000
  0.285714  0.035714  0.000000     24.000000
  0.321429  0.035714 -0.000000     24.000000
  0.357143  0.035714  0.000000     24.000000
  0.392857  0.035714 -0.000000     24.000000
  0.428571  0.035714  0.000000     24.000000
  0.464286  0.035714 -0.000000     24.000000
  0.500000  0.035714  0.000000     24.000000
 -0.464286  0.035714 -0.000000     24.000000
 -0.428571  0.035714 -0.000000     24.000000
 -0.392857  0.035714  0.000000     24.000000
 -0.357143  0.035714 -0.000000     24.000000
 -0.321429  0.035714  0.000000     24.000000
 -0.285714  0.035714 -0.000000     24.000000
 -0.250000  0.035714  0.000000     24.000000
 -0.214286  0.035714 -0.000000     24.000000
 -0.178571  0.035714 -0.000000     24.000000
 -0.142857  0.035714  0.000000     24.000000
 -0.107143  0.035714 -0.000000     24.000000
 -0.071429  0.035714  0.000000     24.000000
 -0.035714  0.035714 -0.000000     12.000000
  0.071429  0.071429  0.000000      6.000000
  0.107143  0.071429 -0.000000     24.000000
  0.142857  0.071429  0.000000     24.000000
  0.178571  0.071429 -0.000000     24.000000
  0.214286  0.071429  0.000000     24.000000
  0.250000  0.071429 -0.000000     24.000000
  0.285714  0.071429  0.000000     24.000000
  0.321429  0.071429  0.000000     24.000000
  0.357143  0.071429 -0.000000     24.000000
  0.392857  0.071429  0.000000     24.000000
  0.428571  0.071429 -0.000000     24.000000
  0.464286  0.071429  0.000000     24.000000
  0.500000  0.071429 -0.000000     24.000000
 -0.464286  0.071429  0.000000     24.000000
 -0.428571  0.071429 -0.000000     24.000000
 -0.392857  0.071429 -0.000000     24.000000
 -0.357143  0.071429  0.000000     24.000000
 -0.321429  0.071429 -0.000000     24.000000
[...]
 -0.321429  0.428571  0.178571     48.000000
 -0.285714  0.428571  0.178571     48.000000
 -0.250000  0.428571  0.178571     24.000000
 -0.357143  0.464286  0.178571     24.000000
 -0.321429  0.464286  0.178571     48.000000
 -0.285714  0.464286  0.178571     24.000000
 -0.321429  0.500000  0.178571     12.000000
 -0.357143  0.428571  0.214286     24.000000
 -0.321429  0.428571  0.214286     48.000000
 -0.285714  0.428571  0.214286     24.000000
 -0.321429  0.464286  0.214286     24.000000
 -0.285714  0.464286  0.214286     48.000000
 -0.250000  0.464286  0.214286     24.000000
 -0.285714  0.500000  0.214286     12.000000
 -0.250000  0.500000  0.250000      6.000000

 Following cartesian coordinates:
            Coordinates               Weight
  0.000000  0.000000  0.000000      1.000000
  0.035714  0.035714 -0.035714      8.000000
  0.071429  0.071429 -0.071429      8.000000
  0.107143  0.107143 -0.107143      8.000000
  0.142857  0.142857 -0.142857      8.000000
  0.178571  0.178571 -0.178571      8.000000
  0.214286  0.214286 -0.214286      8.000000
  0.250000  0.250000 -0.250000      8.000000
  0.285714  0.285714 -0.285714      8.000000
  0.321429  0.321429 -0.321429      8.000000
  0.357143  0.357143 -0.357143      8.000000
  0.392857  0.392857 -0.392857      8.000000
  0.428571  0.428571 -0.428571      8.000000
  0.464286  0.464286 -0.464286      8.000000
  0.500000  0.500000 -0.500000      4.000000
  0.000000  0.071429  0.000000      6.000000
  0.035714  0.107143 -0.035714     24.000000
  0.071429  0.142857 -0.071429     24.000000
  0.107143  0.178571 -0.107143     24.000000
  0.142857  0.214286 -0.142857     24.000000
  0.178571  0.250000 -0.178571     24.000000
  0.214286  0.285714 -0.214286     24.000000
  0.250000  0.321429 -0.250000     24.000000
  0.285714  0.357143 -0.285714     24.000000
  0.321429  0.392857 -0.321429     24.000000
  0.357143  0.428571 -0.357143     24.000000
  0.392857  0.464286 -0.392857     24.000000
  0.428571  0.500000 -0.428571     24.000000
  0.464286  0.535714 -0.464286     24.000000
 -0.500000 -0.428571  0.500000     24.000000
 -0.464286 -0.392857  0.464286     24.000000
 -0.428571 -0.357143  0.428571     24.000000
 -0.392857 -0.321429  0.392857     24.000000
 -0.357143 -0.285714  0.357143     24.000000
 -0.321429 -0.250000  0.321429     24.000000
 -0.285714 -0.214286  0.285714     24.000000
 -0.250000 -0.178571  0.250000     24.000000
 -0.214286 -0.142857  0.214286     24.000000
 -0.178571 -0.107143  0.178571     24.000000
 -0.142857 -0.071429  0.142857     24.000000
 -0.107143 -0.035714  0.107143     24.000000
 -0.071429  0.000000  0.071429     12.000000
  0.000000  0.142857  0.000000      6.000000
  0.035714  0.178571 -0.035714     24.000000
  0.071429  0.214286 -0.071429     24.000000
  0.107143  0.250000 -0.107143     24.000000
[...]
  -0.39285714  0.07142857 -0.00000000       0.001
  -0.35714286  0.07142857  0.00000000       0.001
  -0.32142857  0.07142857 -0.00000000       0.001
[...]
  -0.32142857  0.42857143  0.17857143       0.002
  -0.28571429  0.42857143  0.17857143       0.002
  -0.25000000  0.42857143  0.17857143       0.001
  -0.35714286  0.46428571  0.17857143       0.001
  -0.32142857  0.46428571  0.17857143       0.002
  -0.28571429  0.46428571  0.17857143       0.001
  -0.32142857  0.50000000  0.17857143       0.001
  -0.35714286  0.42857143  0.21428571       0.001
  -0.32142857  0.42857143  0.21428571       0.002
  -0.28571429  0.42857143  0.21428571       0.001
  -0.32142857  0.46428571  0.21428571       0.001
  -0.28571429  0.46428571  0.21428571       0.002
  -0.25000000  0.46428571  0.21428571       0.001
  -0.28571429  0.50000000  0.21428571       0.001
  -0.25000000  0.50000000  0.25000000       0.000

 position of ions in fractional coordinates (direct lattice)
   0.00000000  0.00000000  0.00000000

 position of ions in cartesian coordinates  (Angst):
   0.00000000  0.00000000  0.00000000

 k-point   1 :   0.0000 0.0000 0.0000  plane waves:     411
 k-point   2 :   0.0357 0.0000-0.0000  plane waves:     405
 k-point   3 :   0.0714-0.0000 0.0000  plane waves:     402
 k-point   4 :   0.1071-0.0000-0.0000  plane waves:     396
 k-point   5 :   0.1429 0.0000 0.0000  plane waves:     384
 k-point   6 :   0.1786-0.0000-0.0000  plane waves:     387
 k-point   7 :   0.2143 0.0000 0.0000  plane waves:     386
 k-point   8 :   0.2500-0.0000 0.0000  plane waves:     392
 k-point   9 :   0.2857 0.0000-0.0000  plane waves:     395
 k-point  10 :   0.3214 0.0000 0.0000  plane waves:     401
 k-point  11 :   0.3571-0.0000-0.0000  plane waves:     401
 k-point  12 :   0.3929 0.0000 0.0000  plane waves:     407
 k-point  13 :   0.4286 0.0000-0.0000  plane waves:     401
 k-point  14 :   0.4643 0.0000 0.0000  plane waves:     401
 k-point  15 :   0.5000-0.0000 0.0000  plane waves:     392
 k-point  16 :   0.0357 0.0357 0.0000  plane waves:     407
 k-point  17 :   0.0714 0.0357-0.0000  plane waves:     402
 k-point  18 :   0.1071 0.0357 0.0000  plane waves:     394
 k-point  19 :   0.1429 0.0357-0.0000  plane waves:     389
 k-point  20 :   0.1786 0.0357 0.0000  plane waves:     391
 k-point  21 :   0.2143 0.0357-0.0000  plane waves:     390
 k-point  22 :   0.2500 0.0357 0.0000  plane waves:     392
 k-point  23 :   0.2857 0.0357 0.0000  plane waves:     395
 k-point  24 :   0.3214 0.0357-0.0000  plane waves:     399
 k-point  25 :   0.3571 0.0357 0.0000  plane waves:     401
 k-point  26 :   0.3929 0.0357-0.0000  plane waves:     403
 k-point  27 :   0.4286 0.0357 0.0000  plane waves:     399
 k-point  28 :   0.4643 0.0357-0.0000  plane waves:     397
 k-point  29 :   0.5000 0.0357 0.0000  plane waves:     399
 k-point  30 :  -0.4643 0.0357-0.0000  plane waves:     401
 k-point  31 :  -0.4286 0.0357-0.0000  plane waves:     400
 k-point  32 :  -0.3929 0.0357 0.0000  plane waves:     403
 k-point  33 :  -0.3571 0.0357-0.0000  plane waves:     401
 k-point  34 :  -0.3214 0.0357 0.0000  plane waves:     399
 k-point  35 :  -0.2857 0.0357-0.0000  plane waves:     395
 k-point  36 :  -0.2500 0.0357 0.0000  plane waves:     397
 k-point  37 :  -0.2143 0.0357-0.0000  plane waves:     390
 k-point  38 :  -0.1786 0.0357-0.0000  plane waves:     391
 k-point  39 :  -0.1429 0.0357 0.0000  plane waves:     390
 k-point  40 :  -0.1071 0.0357-0.0000  plane waves:     386
 k-point  41 :  -0.0714 0.0357 0.0000  plane waves:     395
 k-point  42 :  -0.0357 0.0357-0.0000  plane waves:     405
 k-point  43 :   0.0714 0.0714 0.0000  plane waves:     399
 k-point  44 :   0.1071 0.0714-0.0000  plane waves:     393
 k-point  45 :   0.1429 0.0714 0.0000  plane waves:     388
 k-point  46 :   0.1786 0.0714-0.0000  plane waves:     389
 k-point  47 :   0.2143 0.0714 0.0000  plane waves:     388
 k-point  48 :   0.2500 0.0714-0.0000  plane waves:     388
 k-point  49 :   0.2857 0.0714 0.0000  plane waves:     394
 k-point  50 :   0.3214 0.0714 0.0000  plane waves:     397
 k-point  51 :   0.3571 0.0714-0.0000  plane waves:     403
 k-point  52 :   0.3929 0.0714 0.0000  plane waves:     405
 k-point  53 :   0.4286 0.0714-0.0000  plane waves:     403
 k-point  54 :   0.4643 0.0714 0.0000  plane waves:     395
 k-point  55 :   0.5000 0.0714-0.0000  plane waves:     399
 k-point  56 :  -0.4643 0.0714 0.0000  plane waves:     401
 k-point  57 :  -0.4286 0.0714-0.0000  plane waves:     399
 k-point  58 :  -0.3929 0.0714-0.0000  plane waves:     401
 k-point  59 :  -0.3571 0.0714 0.0000  plane waves:     404
 k-point  60 :  -0.3214 0.0714-0.0000  plane waves:     402
[...]
 k-point 610 :  -0.3214 0.4286 0.1786  plane waves:     399
 k-point 611 :  -0.2857 0.4286 0.1786  plane waves:     400
 k-point 612 :  -0.2500 0.4286 0.1786  plane waves:     399
 k-point 613 :  -0.3571 0.4643 0.1786  plane waves:     395
 k-point 614 :  -0.3214 0.4643 0.1786  plane waves:     398
 k-point 615 :  -0.2857 0.4643 0.1786  plane waves:     399
 k-point 616 :  -0.3214 0.5000 0.1786  plane waves:     398
 k-point 617 :  -0.3571 0.4286 0.2143  plane waves:     399
 k-point 618 :  -0.3214 0.4286 0.2143  plane waves:     400
 k-point 619 :  -0.2857 0.4286 0.2143  plane waves:     402
 k-point 620 :  -0.3214 0.4643 0.2143  plane waves:     400
 k-point 621 :  -0.2857 0.4643 0.2143  plane waves:     398
 k-point 622 :  -0.2500 0.4643 0.2143  plane waves:     400
 k-point 623 :  -0.2857 0.5000 0.2143  plane waves:     396
 k-point 624 :  -0.2500 0.5000 0.2500  plane waves:     396

 maximum and minimum number of plane-waves per node :       415      384

 maximum number of plane-waves:       415
 maximum index in each direction:
   IXMAX=    5   IYMAX=    5   IZMAX=    5
   IXMIN=   -5   IYMIN=   -5   IZMIN=   -5

 serial   3D FFT for wavefunctions
 parallel 3D FFT for charge:
    minimum data exchange during FFTs selected (reduces bandwidth)

 Broyden mixing: mesh for mixing (old mesh)
   NGX = 11   NGY = 11   NGZ = 11
  (NGX  = 32   NGY  = 32   NGZ  = 32)
  gives a total of   1331 points

 initial charge density was supplied:
 charge density of overlapping atoms calculated
 number of electron       4.0000000 magnetization
 keeping initial charge density in first step

 Maximum index for non-local projection operator         1433
 Maximum index for augmentation-charges         1117 (set IRDMAX)

 First call to EWALD:  gamma=   0.721
 Maximum number of real-space cells 3x 3x 3
 Maximum number of reciprocal cells 3x 3x 3

--------------------------------------- Iteration      1(   1)  ---------------------------------------

 eigenvalue-minimisations  : 10688
 total energy-change (2. order) :-0.2408439E+01  (-0.1781379E+03)
 number of electron       4.0000000 magnetization
 augmentation part        4.0000000 magnetization

 Free energy of the ion-electron system (eV)
  alpha Z        PSCENC =         2.26996938
  Ewald energy   TEWEN  =      -135.42777035
  -Hartree energ DENC   =        -0.65300110
  -exchange      EXHF   =         0.00000000
  -V(xc)+E(xc)   XCENC  =        -8.87087552
  PAW double counting   =        32.97760406      -15.38426339
  entropy T*S    EENTRO =        -0.00061538
  eigenvalues    EBANDS =        19.61416226
  atomic energy  EATOM  =       103.06635137
  Solvation  Ediel_sol  =         0.00000000
  free energy    TOTEN  =        -2.40843868 eV

  energy without entropy =       -2.40782330  energy(sigma->0) =       -2.40813099

[...]

 Broyden mixing:
  rms(total) = 0.76665E-01    rms(broyden)= 0.76664E-01
  rms(prec ) = 0.30404E+00
  weight for this iteration     100.00

[...]

 eigenvalue-minimisations  : 11608
 total energy-change (2. order) : 0.1232227E-01  (-0.3926450E-03)
 number of electron       3.9999999 magnetization
 augmentation part       -0.2448907 magnetization

[...]

 eigenvalues of (default mixing * dielectric matrix)
  average eigenvalue GAMMA=   2.4759
  2.4759

[...]

 average (electrostatic) potential at core
  the test charge radii are     0.9892
  (the norm of the test charge is              1.0000)
       1 -80.2440

 E-fermi :   9.8605     XC(G=0): -11.0957     alpha+bet :-16.1732

 Fermi energy:         9.8605102874

 k-point     1 :       0.0000    0.0000    0.0000
  band No.  band energies     occupation
      1      -4.3794      2.00000
      2      20.6927      0.00000
      3      20.6927      0.00000
      4      20.6927      0.00000
      5      21.6823      0.00000
      6      21.6823      0.00000
      7      21.6823      0.00000
      8      26.9627      0.00000

[...]

 soft charge-density along one line, spin component           1
         0         1         2         3         4         5         6         7         8         9
 total charge-density along one line

------------------------ aborting loop because EDIFF is reached ----------------------------------------

  FORCE on cell =-STRESS in cart. coord.  units (eV):
  Direction    XX          YY          ZZ          XY          YZ          ZX
  Alpha Z     2.26997     2.26997     2.26997
  Ewald     -45.14259   -45.14259   -45.14259    -0.00000     0.00000    -0.00000
  Hartree     0.16201     0.16201     0.16201     0.00000     0.00000     0.00000
  E(xc)     -12.61818   -12.61818   -12.61818    -0.00000    -0.00000    -0.00000
  Local      -5.18139    -5.18139    -5.18139     0.00001     0.00001     0.00001
  n-local    39.02651    37.03385    39.21507    -0.64210     0.60844     1.00737
  augment    -6.32575    -6.32575    -6.32575    -0.00001    -0.00001    -0.00001
  Kinetic    20.79148    39.68837    24.27023     9.94746    -8.53507   -16.25216
  Fock        0.00000     0.00000     0.00000     0.00000     0.00000     0.00000
  Total      -0.16076    -0.16076    -0.16076    -0.00000     0.00000     0.00000
  in kB     -17.36843   -17.36843   -17.36843    -0.00000     0.00000     0.00000

 VOLUME and BASIS-vectors are now :
  energy-cutoff  :      520.00
  volume of cell :       14.83
      direct lattice vectors                 reciprocal lattice vectors
     1.950000000  1.950000000  0.000000000     0.256410256  0.256410256 -0.256410256
     0.000000000  1.950000000  1.950000000    -0.256410256  0.256410256  0.256410256
     1.950000000  0.000000000  1.950000000     0.256410256 -0.256410256  0.256410256

[...]

 FORCES acting on ions
    electron-ion (+dipol)            ewald-force                    non-local-force                 convergence-correction
   0.935E-15 0.825E-15 -.118E-14   -.162E-15 0.162E-15 0.172E-15   -.391E-27 -.619E-26 -.201E-26   0.428E-17 0.394E-17 0.490E-17
   0.935E-15 0.825E-15 -.118E-14   -.162E-15 0.162E-15 0.172E-15   -.391E-27 -.619E-26 -.201E-26   0.428E-17 0.394E-17 0.490E-17

 POSITION                                       TOTAL-FORCE (eV/Angst)
      0.00000      0.00000      0.00000        -0.000000     -0.000000     -0.000000
    total drift:                                0.000000      0.000000     -0.000000

  FREE ENERGIE OF THE ION-ELECTRON SYSTEM (eV)
  free  energy   TOTEN  =        -4.88788676 eV

  energy  without entropy=       -4.88744373  energy(sigma->0) =       -4.88766525

[...]

 d Force = 0.0000000E+00[ 0.000E+00, 0.000E+00]  d Energy = 0.2060028E-02-0.206E-02
 d Force = 0.0000000E+00[ 0.000E+00, 0.000E+00]  d Ewald  = 0.1058532E+01-0.106E+01

 Steepest descent step on ions:
 trial-energy change:   -0.002060  1 .order   -0.002036   -0.003740   -0.000331
  (g-gl).g = 0.374E-02      g.g   = 0.374E-02  gl.gl    = 0.000E+00
 g(Force)  = 0.519E-65   g(Stress)= 0.374E-02 ortho     = 0.000E+00
 gamma     =   0.00000
 trial     =   1.00000
 opt step  =   1.09279  (harmonic =   1.09712) maximal distance =0.00000000
 next E    =    -4.889962   (d E  =  -0.00208)

[...]

 eigenvalue-minimisations  :  5960
 total energy-change (2. order) :-0.9473240E-07  (-0.7029607E-10)
 number of electron       3.9999998 magnetization
 augmentation part       -0.2470862 magnetization

 Broyden mixing:
  rms(total) = 0.10834E-05    rms(broyden)= 0.10834E-05
  rms(prec ) = 0.23746E-05
  weight for this iteration     100.00

 eigenvalues of (default mixing * dielectric matrix)
  average eigenvalue GAMMA=   1.7761
  2.6070  2.3473  0.9961  1.1539

[...]

--------------------------------------- Iteration      3(   6)  ---------------------------------------

 eigenvalue-minimisations  :  5536
 total energy-change (2. order) : 0.5830813E-08  (-0.2567816E-11)
 number of electron       3.9999998 magnetization
 augmentation part       -0.2470862 magnetization

 Free energy of the ion-electron system (eV)
  alpha Z        PSCENC =         2.32867722
  Ewald energy   TEWEN  =      -136.58536279
  -Hartree energ DENC   =        -0.44548704
  -exchange      EXHF   =         0.00000000
  -V(xc)+E(xc)   XCENC  =        -8.75062238
  PAW double counting   =        33.78775911      -16.20185146
  entropy T*S    EENTRO =        -0.00047968
  eigenvalues    EBANDS =        17.91105252
  atomic energy  EATOM  =       103.06635137
  Solvation  Ediel_sol  =         0.00000000
  free energy    TOTEN  =        -4.88996313 eV

  energy without entropy =       -4.88948345  energy(sigma->0) =       -4.88972329

 average (electrostatic) potential at core
  the test charge radii are     0.9892
  (the norm of the test charge is              1.0000)
       1 -79.9020

 E-fermi :  10.2088     XC(G=0): -11.1989     alpha+bet :-16.5915

 Fermi energy:        10.2087894861

[...]

 k-point   624 :      -0.2500    0.5000    0.2500
  band No.  band energies     occupation
      1       7.1045      2.00000
      2       7.1045      2.00000
      3       7.4459      2.00000
      4       8.6597      2.00000
      5      24.5472      0.00000
      6      25.1833      0.00000
      7      25.1833      0.00000
      8      27.5948      0.00000

 soft charge-density along one line, spin component           1
         0         1         2         3         4         5         6         7         8         9
 total charge-density along one line

------------------------ aborting loop because EDIFF is reached ----------------------------------------

  FORCE on cell =-STRESS in cart. coord.  units (eV):
  Direction    XX          YY          ZZ          XY          YZ          ZX
  Alpha Z     2.32868     2.32868     2.32868
  Ewald     -45.52846   -45.52846   -45.52846     0.00000    -0.00000    -0.00000
  Hartree     0.14850     0.14850     0.14850     0.00000     0.00000     0.00000
  E(xc)     -12.69857   -12.69857   -12.69857    -0.00000    -0.00000    -0.00000
  Local      -4.95868    -4.95868    -4.95868     0.00001     0.00001     0.00001
  n-local    39.02719    36.90174    39.24897    -0.73555     0.67558     1.14058
  augment    -6.29577    -6.29577    -6.29577    -0.00001    -0.00001    -0.00001
  Kinetic    21.02738    40.26398    24.54252    10.15348    -8.70839   -16.57744
  Fock        0.00000     0.00000     0.00000     0.00000     0.00000     0.00000
  Total      -0.00037    -0.00037    -0.00037     0.00000     0.00000     0.00000
  in kB      -0.04114    -0.04114    -0.04114     0.00000     0.00000     0.00000

 VOLUME and BASIS-vectors are now :
  energy-cutoff  :      520.00
  volume of cell :       14.46
      direct lattice vectors                 reciprocal lattice vectors
     1.933473300  1.933473300 -0.000000000     0.258601968  0.258601968 -0.258601968
    -0.000000000  1.933473300  1.933473300    -0.258601968  0.258601968  0.258601968
     1.933473300  0.000000000  1.933473300     0.258601968 -0.258601968  0.258601968

  length of vectors
     2.734344164  2.734344164  2.734344164     0.447911747  0.447911747  0.447911747

 FORCES acting on ions
    electron-ion (+dipol)            ewald-force                    non-local-force                 convergence-correction
   -.120E-14 -.259E-15 0.144E-14   0.619E-15 -.148E-15 -.269E-16   0.218E-27 0.151E-27 -.223E-27   0.171E-16 0.163E-16 -.497E-17
   -.120E-14 -.259E-15 0.144E-14   0.619E-15 -.148E-15 -.269E-16   0.218E-27 0.151E-27 -.223E-27   0.171E-16 0.163E-16 -.497E-17

 POSITION                                       TOTAL-FORCE (eV/Angst)
     -0.00000     -0.00000     -0.00000        -0.000000     -0.000000     -0.000000
    total drift:                               -0.000000     -0.000000      0.000000

  FREE ENERGIE OF THE ION-ELECTRON SYSTEM (eV)
  free  energy   TOTEN  =        -4.88996313 eV

  energy  without entropy=       -4.88948345  energy(sigma->0) =       -4.88972329

 d Force = 0.0000000E+00[ 0.000E+00, 0.000E+00]  d Energy = 0.1634097E-04-0.163E-04
 d Force = 0.0000000E+00[ 0.000E+00, 0.000E+00]  d Ewald  = 0.9906018E-01-0.991E-01

 reached required accuracy - stopping structural energy minimisation
 writing wavefunctions