 vasp.6.3.2 27Jun22 (build Dec 02 2024 22:47:12) complex

 executed on             LinuxIFC date 2024.12.19  22:03:57

 INCAR:
   SYSTEM = DFT Virtual Orbitals for Silicon
   ALGO = Exact
   NBANDS = 64
   LOPTICS = .TRUE.
   CSHIFT = 0.1
   NEDOS = 2000
   LPEAD = .TRUE.
   ISMEAR = 0
   SIGMA = 0.05
   EDIFF = 1E-8

 POTCAR:    PAW_PBE Si_GW 04May2012
|           W    W    AA    RRRRR   N    N  II  N    N   GGGG   !!!           |
|           W    W   A  A   R    R  NN   N  II  NN   N  G    G  !!!           |
|           W    W  A    A  R    R  N N  N  II  N N  N  G       !!!           |
|           W WW W  AAAAAA  RRRRR   N  N N  II  N  N N  G  GGG   !            |
|           WW  WW  A    A  R   R   N   NN  II  N   NN  G    G                |
|           W    W  A    A  R    R  N    N  II  N    N   GGGG   !!!           |
|     For optimal performance we recommend to set                             |
|       NCORE = 2 up to number-of-cores-per-socket                            |
|     This setting can greatly improve the performance of VASP for DFT.       |
|     The default, NCORE=1 might be grossly inefficient on modern             |
|     multi-core architectures or massively parallel machines. Do your        |
|     Unfortunately you need to use the default for GW and RPA                |
|     calculations (for HF NCORE is supported but not extensively tested      |
|     yet).                                                                   |

 POTCAR:    PAW_PBE Si_GW 04May2012
   VRHFIN =Si: s2p2

   TITEL  = PAW_PBE Si_GW 04May2012
   POMASS =   28.085; ZVAL   =    4.000    mass and valenz
   ENMAX  =  245.345; ENMIN  =  184.009 eV

  PAW_PBE Si_GW 04May2012               :

 POSCAR: system Si
  positions in cartesian coordinates
 exchange correlation table for  LEXCH =        8
   RHO(1)=    0.500       N(1)  =     2000
   RHO(2)=  100.500       N(2)  =     4000

 ion  position               nearest neighbor table
   1  0.000  0.000  0.000-   2 2.35   2 2.35   2 2.35   2 2.35
   2  0.250  0.250  0.250-   1 2.35   1 2.35   1 2.35   1 2.35

  LATTYP: Found a face centered cubic cell.
 ALAT       =     5.4300000000

  Lattice vectors:

 A1 = (   2.7150000000,   2.7150000000,   0.0000000000)
 A2 = (   0.0000000000,   2.7150000000,   2.7150000000)
 A3 = (   2.7150000000,   0.0000000000,   2.7150000000)

Analysis of symmetry for initial positions (statically):
 Subroutine PRICEL returns:
 Original cell was already a primitive cell.

 Routine SETGRP: Setting up the symmetry group for a
 face centered cubic supercell.

 Subroutine GETGRP returns: Found 48 space group operations
 (whereof 24 operations were pure point group operations)
 out of a pool of 48 trial point group operations.

The static configuration has the point symmetry T_d .
 The point group associated with its full space group is O_h .

Analysis of symmetry for dynamics (positions and initial velocities):
 Subroutine PRICEL returns:
 Original cell was already a primitive cell.

 Routine SETGRP: Setting up the symmetry group for a
 face centered cubic supercell.

 Subroutine GETGRP returns: Found 48 space group operations
 (whereof 24 operations were pure point group operations)
 out of a pool of 48 trial point group operations.

The dynamic configuration has the point symmetry T_d .
 The point group associated with its full space group is O_h .

 Subroutine INISYM returns: Found 48 space group operations
 (whereof 24 operations are pure point group operations),
 and found     1 'primitive' translations

                                     Primitive cell

  volume of cell :      40.0258

  direct lattice vectors                    reciprocal lattice vectors
     2.715000000  2.715000000  0.000000000     0.184162063  0.184162063 -0.184162063
     0.000000000  2.715000000  2.715000000    -0.184162063  0.184162063  0.184162063
     2.715000000  0.000000000  2.715000000     0.184162063 -0.184162063  0.184162063

  length of vectors
     3.839589822  3.839589822  3.839589822     0.318978049  0.318978049  0.318978049

  position of ions in fractional coordinates (direct lattice)
     0.000000000  0.000000000  0.000000000
     0.250000000  0.250000000  0.250000000

  ion indices of the primitive-cell ions
   primitive index   ion index
                 1           1
                 2           2

Automatic generation of k-mesh.
 Grid dimensions derived from KSPACING:
 generate k-points for:    5    5    5

 Generating k-lattice:

  Cartesian coordinates                     Fractional coordinates (reciprocal lattice)
     0.036832413  0.036832413 -0.036832413     0.200000000  0.000000000  0.000000000
    -0.036832413  0.036832413  0.036832413     0.000000000  0.200000000 -0.000000000
     0.036832413 -0.036832413  0.036832413    -0.000000000 -0.000000000  0.200000000

  Length of vectors
     0.063795610  0.063795610  0.063795610

  Shift w.r.t. Gamma in fractional coordinates (k-lattice)
     0.000000000  0.000000000  0.000000000

 Subroutine IBZKPT returns following result:

 Found     10 irreducible k-points:

 Following reciprocal coordinates:
            Coordinates               Weight
  0.000000  0.000000  0.000000      1.000000
  0.200000  0.000000 -0.000000      8.000000
  0.400000 -0.000000 -0.000000      8.000000
  0.200000  0.200000  0.000000      6.000000
  0.400000  0.200000 -0.000000     24.000000
 -0.400000  0.200000 -0.000000     24.000000
 -0.200000  0.200000  0.000000     12.000000
  0.400000  0.400000  0.000000      6.000000
 -0.400000  0.400000 -0.000000     12.000000
 -0.400000  0.400000  0.200000     24.000000

 Following cartesian coordinates:
            Coordinates               Weight
  0.000000  0.000000  0.000000      1.000000
  0.200000  0.200000 -0.200000      8.000000
  0.400000  0.400000 -0.400000      8.000000
  0.000000  0.400000  0.000000      6.000000
  0.200000  0.600000 -0.200000     24.000000
 -0.600000 -0.200000  0.600000     24.000000
 -0.400000 -0.000000  0.400000     12.000000
  0.000000  0.800000  0.000000      6.000000
 -0.800000  0.000000  0.800000     12.000000
 -0.600000 -0.200000  1.000000     24.000000

 Subroutine IBZKPT_HF returns following result:

 Found    125 k-points in 1st BZ
 the following    125 k-points will be used (e.g. in the exchange kernel)
 Following reciprocal coordinates:   # in IRBZ
  0.000000  0.000000  0.000000    0.00800000   1 t-inv F
  0.200000  0.000000 -0.000000    0.00800000   2 t-inv F
  0.400000 -0.000000 -0.000000    0.00800000   3 t-inv F
  0.200000  0.200000  0.000000    0.00800000   4 t-inv F
  0.400000  0.200000 -0.000000    0.00800000   5 t-inv F
 -0.400000  0.200000 -0.000000    0.00800000   6 t-inv F
 -0.200000  0.200000  0.000000    0.00800000   7 t-inv F
  0.400000  0.400000  0.000000    0.00800000   8 t-inv F
 -0.400000  0.400000 -0.000000    0.00800000   9 t-inv F
 -0.400000  0.400000  0.200000    0.00800000  10 t-inv F
 -0.000000  0.200000  0.000000    0.00800000   2 t-inv F
  0.000000 -0.000000  0.200000    0.00800000   2 t-inv F
 -0.200000 -0.200000 -0.200000    0.00800000   2 t-inv F
 -0.200000 -0.000000  0.000000    0.00800000   2 t-inv F
  0.000000 -0.200000 -0.000000    0.00800000   2 t-inv F
 -0.000000  0.000000 -0.200000    0.00800000   2 t-inv F
  0.200000  0.200000  0.200000    0.00800000   2 t-inv F
 -0.000000  0.400000 -0.000000    0.00800000   3 t-inv F
 -0.000000 -0.000000  0.400000    0.00800000   3 t-inv F
 -0.400000 -0.400000 -0.400000    0.00800000   3 t-inv F
 -0.400000  0.000000  0.000000    0.00800000   3 t-inv F
  0.000000 -0.400000  0.000000    0.00800000   3 t-inv F
  0.000000  0.000000 -0.400000    0.00800000   3 t-inv F
  0.400000  0.400000  0.400000    0.00800000   3 t-inv F
  0.000000  0.200000  0.200000    0.00800000   4 t-inv F
  0.200000  0.000000  0.200000    0.00800000   4 t-inv F
 -0.200000 -0.200000  0.000000    0.00800000   4 t-inv F
 -0.200000  0.000000 -0.200000    0.00800000   4 t-inv F
  0.000000 -0.200000 -0.200000    0.00800000   4 t-inv F
 -0.000000  0.400000  0.200000    0.00800000   5 t-inv F
  0.200000 -0.000000  0.400000    0.00800000   5 t-inv F
 -0.200000 -0.200000  0.200000    0.00800000   5 t-inv F
 -0.400000 -0.200000 -0.400000    0.00800000   5 t-inv F
  0.200000  0.400000  0.000000    0.00800000   5 t-inv F
  0.200000 -0.200000 -0.200000    0.00800000   5 t-inv F
 -0.400000 -0.400000 -0.200000    0.00800000   5 t-inv F
  0.000000  0.200000  0.400000    0.00800000   5 t-inv F
 -0.200000  0.200000 -0.200000    0.00800000   5 t-inv F
 -0.200000 -0.400000 -0.400000    0.00800000   5 t-inv F
  0.400000  0.000000  0.200000    0.00800000   5 t-inv F
 -0.400000 -0.200000  0.000000    0.00800000   5 t-inv F
  0.000000 -0.400000 -0.200000    0.00800000   5 t-inv F
 -0.200000  0.000000 -0.400000    0.00800000   5 t-inv F
  0.200000  0.200000 -0.200000    0.00800000   5 t-inv F
  0.400000  0.200000  0.400000    0.00800000   5 t-inv F
 -0.200000 -0.400000 -0.000000    0.00800000   5 t-inv F
 -0.200000  0.200000  0.200000    0.00800000   5 t-inv F
  0.400000  0.400000  0.200000    0.00800000   5 t-inv F
 -0.000000 -0.200000 -0.400000    0.00800000   5 t-inv F
  0.200000 -0.200000  0.200000    0.00800000   5 t-inv F
  0.200000  0.400000  0.400000    0.00800000   5 t-inv F
 -0.400000 -0.000000 -0.200000    0.00800000   5 t-inv F
 -0.000000 -0.400000  0.200000    0.00800000   6 t-inv F
  0.200000 -0.000000 -0.400000    0.00800000   6 t-inv F
 -0.200000 -0.200000 -0.600000    0.00800000   6 t-inv F
  0.400000  0.600000  0.400000    0.00800000   6 t-inv F
  0.200000 -0.400000  0.000000    0.00800000   6 t-inv F
 -0.600000 -0.200000 -0.200000    0.00800000   6 t-inv F
  0.400000  0.400000  0.600000    0.00800000   6 t-inv F
  0.000000  0.200000 -0.400000    0.00800000   6 t-inv F
[...]
  0.600000  0.400000  0.800000    0.00800000  10 t-inv F
  0.200000 -0.200000 -0.600000    0.00800000  10 t-inv F
 -0.800000 -0.400000 -0.200000    0.00800000  10 t-inv F
 -0.200000  0.200000 -0.600000    0.00800000  10 t-inv F
 -0.400000 -0.800000 -0.200000    0.00800000  10 t-inv F
  0.400000  0.600000  0.800000    0.00800000  10 t-inv F
  0.800000  0.600000  0.400000    0.00800000  10 t-inv F
 -0.600000  0.200000 -0.200000    0.00800000  10 t-inv F
 -0.200000 -0.800000 -0.400000    0.00800000  10 t-inv F
 -0.600000 -0.200000  0.200000    0.00800000  10 t-inv F
 -0.200000 -0.400000 -0.800000    0.00800000  10 t-inv F
  0.800000  0.400000  0.600000    0.00800000  10 t-inv F
 -0.400000  0.200000  0.400000    0.00800000  10 t-inv F
  0.400000 -0.400000  0.200000    0.00800000  10 t-inv F
  0.200000  0.400000 -0.400000    0.00800000  10 t-inv F

 SYSTEM =  DFT Virtual Orbitals for Silicon
 POSCAR =  system Si

 Startparameter for this run:
   NWRITE =      2    write-flag & timer
   PREC   = normal    normal or accurate (medium, high low for compatibility)
   ISTART =      1    job   : 0-new  1-cont  2-samecut
   ICHARG =      0    charge: 1-file 2-atom 10-const
   ISPIN  =      1    spin polarized calculation?
   LNONCOLLINEAR =      F non collinear calculations
   LSORBIT =      F    spin-orbit coupling
   INIWAV =      1    electr: 0-lowe 1-rand  2-diag
   LASPH  =      F    aspherical Exc in radial PAW
[...]
   16.220762    0.043327    0.043327    0.043327   -0.000000    0.000000   -0.000000
   16.712300    0.146466    0.146466    0.146466   -0.000000    0.000000   -0.000000
   17.203838    0.114471    0.114471    0.114471   -0.000000    0.000000   -0.000000
   17.695376    0.200799    0.200799    0.200799   -0.000000    0.000000   -0.000000
   18.186915    0.210462    0.210462    0.210462   -0.000000    0.000000   -0.000000
   18.678453    0.266244    0.266244    0.266244   -0.000000    0.000000   -0.000000
   19.169991    0.320628    0.320628    0.320628   -0.000000    0.000000   -0.000000
   19.661529    0.316326    0.316326    0.316326   -0.000000    0.000000   -0.000000
   20.153068    0.405431    0.405431    0.405431   -0.000000    0.000000   -0.000000
   20.644606    0.440613    0.440613    0.440613   -0.000000    0.000000   -0.000000
   21.136144    0.468084    0.468084    0.468084   -0.000000    0.000000   -0.000000
   21.627682    0.494808    0.494808    0.494808   -0.000000    0.000000   -0.000000
   22.119221    0.506437    0.506437    0.506437   -0.000000    0.000000   -0.000000
   22.610759    0.486348    0.486348    0.486348   -0.000000    0.000000   -0.000000
   23.102297    0.545552    0.545552    0.545552   -0.000000    0.000000   -0.000000
   23.593835    0.534781    0.534781    0.534781   -0.000000    0.000000   -0.000000
   24.085373    0.534726    0.534726    0.534726   -0.000000    0.000000   -0.000000
   24.576912    0.573322    0.573322    0.573322   -0.000000    0.000000   -0.000000
   25.068450    0.604955    0.604955    0.604955   -0.000000    0.000000   -0.000000
   25.559988    0.603848    0.603848    0.603848   -0.000000    0.000000   -0.000000
   26.051526    0.646060    0.646060    0.646060   -0.000000    0.000000   -0.000000
   26.543065    0.671340    0.671340    0.671340   -0.000000    0.000000   -0.000000
   27.034603    0.666085    0.666085    0.666085   -0.000000    0.000000   -0.000000
   27.526141    0.663439    0.663439    0.663439   -0.000000    0.000000   -0.000000
   28.017679    0.700119    0.700119    0.700119   -0.000000    0.000000   -0.000000
   28.509218    0.703331    0.703331    0.703331   -0.000000    0.000000   -0.000000
   29.000756    0.732048    0.732048    0.732048   -0.000000    0.000000   -0.000000
[...]
   90.934573    0.969776    0.969776    0.969776   -0.000000    0.000000   -0.000000
   91.426111    0.970117    0.970117    0.970117   -0.000000    0.000000   -0.000000
   91.917650    0.970452    0.970452    0.970452   -0.000000    0.000000   -0.000000
   92.409188    0.970780    0.970780    0.970780   -0.000000    0.000000   -0.000000
   92.900726    0.971103    0.971103    0.971103   -0.000000    0.000000   -0.000000
   93.392264    0.971420    0.971420    0.971420   -0.000000    0.000000   -0.000000
   93.883803    0.971732    0.971732    0.971732   -0.000000    0.000000   -0.000000
   94.375341    0.972039    0.972039    0.972039   -0.000000    0.000000   -0.000000
   94.866879    0.972340    0.972340    0.972340   -0.000000    0.000000   -0.000000
   95.358417    0.972636    0.972636    0.972636   -0.000000    0.000000   -0.000000
   95.849956    0.972928    0.972928    0.972928   -0.000000    0.000000   -0.000000
   96.341494    0.973214    0.973214    0.973214   -0.000000    0.000000   -0.000000
   96.833032    0.973496    0.973496    0.973496   -0.000000    0.000000   -0.000000
   97.324570    0.973773    0.973773    0.973773   -0.000000    0.000000   -0.000000
   97.816108    0.974046    0.974046    0.974046   -0.000000    0.000000   -0.000000

  frequency dependent IMAGINARY DIELECTRIC FUNCTION (independent particle, no local field effects) current-current
     E(ev)      X         Y         Z        XY        YZ        ZX
    0.000000   46.403025   46.403025   46.403025   -0.000000   -0.000000    0.000000
    0.491538    4.819469    4.819469    4.819469   -0.000000   -0.000000    0.000000
    0.983076    2.724604    2.724604    2.724604   -0.000000   -0.000000    0.000000
    1.474615    2.307161    2.307161    2.307161   -0.000000   -0.000000    0.000000
    1.966153    2.738768    2.738768    2.738768   -0.000000   -0.000000    0.000000
    2.457691    8.514490    8.514490    8.514490   -0.000000   -0.000000    0.000000
    2.949229   20.124785   20.124785   20.124785   -0.000000   -0.000000    0.000000
    3.440768   16.588863   16.588863   16.588863   -0.000000   -0.000000    0.000000
    3.932306   36.138367   36.138367   36.138367   -0.000000   -0.000000    0.000000
    4.423844    8.609365    8.609365    8.609365    0.000000   -0.000000    0.000000
    4.915382    4.421824    4.421824    4.421824    0.000000   -0.000000    0.000000
    5.406921    4.683054    4.683054    4.683054   -0.000000   -0.000000    0.000000
    5.898459    1.241849    1.241849    1.241849   -0.000000   -0.000000    0.000000
    6.389997    6.978484    6.978484    6.978484   -0.000000   -0.000000    0.000000
    6.881535    5.886371    5.886371    5.886371   -0.000000   -0.000000    0.000000
    7.373074    9.712500    9.712500    9.712500   -0.000000   -0.000000    0.000000
    7.864612    3.940642    3.940642    3.940642    0.000000   -0.000000    0.000000
    8.356150    1.427241    1.427241    1.427241    0.000000   -0.000000    0.000000
    8.847688    1.127107    1.127107    1.127107    0.000000   -0.000000    0.000000
    9.339226    0.763043    0.763043    0.763043   -0.000000   -0.000000    0.000000
    9.830765    0.833891    0.833891    0.833891   -0.000000   -0.000000    0.000000
   10.322303    0.829515    0.829515    0.829515   -0.000000   -0.000000    0.000000
   10.813841    0.328745    0.328745    0.328745    0.000000   -0.000000    0.000000
   11.305379    0.387177    0.387177    0.387177    0.000000   -0.000000    0.000000
   11.796918    0.560242    0.560242    0.560242    0.000000   -0.000000    0.000000
   12.288456    0.346009    0.346009    0.346009    0.000000   -0.000000    0.000000
   12.779994    0.396199    0.396199    0.396199    0.000000   -0.000000    0.000000
   13.271532    0.306683    0.306683    0.306683    0.000000   -0.000000    0.000000
   13.763071    0.418820    0.418820    0.418820    0.000000   -0.000000    0.000000
   14.254609    0.361671    0.361671    0.361671    0.000000   -0.000000    0.000000
   14.746147    0.216948    0.216948    0.216948    0.000000   -0.000000    0.000000
   15.237685    0.334066    0.334066    0.334066    0.000000   -0.000000    0.000000
   15.729223    0.117299    0.117299    0.117299    0.000000   -0.000000    0.000000
   16.220762    0.110607    0.110607    0.110607    0.000000   -0.000000    0.000000
   16.712300    0.144414    0.144414    0.144414    0.000000   -0.000000    0.000000
   17.203838    0.110333    0.110333    0.110333   -0.000000   -0.000000    0.000000
   17.695376    0.088436    0.088436    0.088436   -0.000000   -0.000000    0.000000
   18.186915    0.097212    0.097212    0.097212    0.000000   -0.000000    0.000000
   18.678453    0.056409    0.056409    0.056409   -0.000000   -0.000000    0.000000
   19.169991    0.037897    0.037897    0.037897   -0.000000   -0.000000    0.000000
   19.661529    0.086169    0.086169    0.086169   -0.000000   -0.000000    0.000000
   20.153068    0.030369    0.030369    0.030369   -0.000000   -0.000000    0.000000
   20.644606    0.056495    0.056495    0.056495   -0.000000   -0.000000    0.000000
   21.136144    0.052814    0.052814    0.052814   -0.000000   -0.000000    0.000000
   21.627682    0.055311    0.055311    0.055311    0.000000   -0.000000    0.000000
   22.119221    0.105441    0.105441    0.105441    0.000000   -0.000000    0.000000
   22.610759    0.043305    0.043305    0.043305    0.000000   -0.000000    0.000000
   23.102297    0.050046    0.050046    0.050046    0.000000   -0.000000    0.000000
   23.593835    0.043463    0.043463    0.043463   -0.000000   -0.000000    0.000000
   24.085373    0.042027    0.042027    0.042027    0.000000   -0.000000    0.000000
   24.576912    0.021974    0.021974    0.021974   -0.000000   -0.000000    0.000000
   25.068450    0.020057    0.020057    0.020057   -0.000000   -0.000000    0.000000
   25.559988    0.028668    0.028668    0.028668    0.000000   -0.000000    0.000000
   26.051526    0.007284    0.007284    0.007284    0.000000   -0.000000    0.000000
   26.543065    0.043499    0.043499    0.043499   -0.000000   -0.000000    0.000000
   27.034603    0.040100    0.040100    0.040100    0.000000   -0.000000    0.000000
   27.526141    0.015191    0.015191    0.015191    0.000000   -0.000000    0.000000
   28.017679    0.009204    0.009204    0.009204    0.000000   -0.000000    0.000000
   28.509218    0.015996    0.015996    0.015996   -0.000000   -0.000000    0.000000
   29.000756    0.023318    0.023318    0.023318    0.000000   -0.000000    0.000000
[...]
   90.934573    0.000003    0.000003    0.000003   -0.000000   -0.000000    0.000000
   91.426111    0.000003    0.000003    0.000003   -0.000000   -0.000000    0.000000
   91.917650    0.000003    0.000003    0.000003   -0.000000   -0.000000    0.000000
   92.409188    0.000003    0.000003    0.000003   -0.000000   -0.000000    0.000000
   92.900726    0.000003    0.000003    0.000003   -0.000000   -0.000000    0.000000
   93.392264    0.000003    0.000003    0.000003   -0.000000   -0.000000    0.000000
   93.883803    0.000003    0.000003    0.000003   -0.000000   -0.000000    0.000000
   94.375341    0.000003    0.000003    0.000003   -0.000000   -0.000000    0.000000
   94.866879    0.000002    0.000002    0.000002   -0.000000   -0.000000    0.000000
   95.358417    0.000002    0.000002    0.000002   -0.000000   -0.000000    0.000000
   95.849956    0.000002    0.000002    0.000002   -0.000000   -0.000000    0.000000
   96.341494    0.000002    0.000002    0.000002   -0.000000   -0.000000    0.000000
   96.833032    0.000002    0.000002    0.000002   -0.000000   -0.000000    0.000000
   97.324570    0.000002    0.000002    0.000002   -0.000000   -0.000000    0.000000
   97.816108    0.000002    0.000002    0.000002   -0.000000   -0.000000    0.000000

  frequency dependent      REAL DIELECTRIC FUNCTION (independent particle, no local field effects) current-current
     E(ev)        X           Y           Z          XY          YZ          ZX
    0.000000   12.366659   12.366659   12.366659   -0.000000   -0.000000    0.000000
    0.491538   12.582088   12.582088   12.582088   -0.000000   -0.000000    0.000000
    0.983076   13.301205   13.301205   13.301205   -0.000000   -0.000000    0.000000
    1.474615   14.790071   14.790071   14.790071   -0.000000   -0.000000    0.000000
    1.966153   17.932566   17.932566   17.932566   -0.000000   -0.000000    0.000000
    2.457691   27.023910   27.023910   27.023910   -0.000000   -0.000000    0.000000
    2.949229    7.572663    7.572663    7.572663    0.000000    0.000000   -0.000000
    3.440768   23.481648   23.481648   23.481648   -0.000000   -0.000000    0.000000
    3.932306  -28.360500  -28.360500  -28.360500    0.000000    0.000000   -0.000000
    4.423844   -7.236389   -7.236389   -7.236389    0.000000    0.000000   -0.000000
    4.915382   -9.386985   -9.386985   -9.386985    0.000000    0.000000   -0.000000
    5.406921   -4.398356   -4.398356   -4.398356    0.000000    0.000000   -0.000000
    5.898459   -0.671850   -0.671850   -0.671850    0.000000    0.000000   -0.000000
    6.389997    3.161295    3.161295    3.161295    0.000000   -0.000000    0.000000
    6.881535   -2.802180   -2.802180   -2.802180   -0.000000    0.000000   -0.000000
    7.373074    0.600203    0.600203    0.600203    0.000000   -0.000000    0.000000
    7.864612   -6.692350   -6.692350   -6.692350    0.000000    0.000000   -0.000000
    8.356150   -5.540777   -5.540777   -5.540777    0.000000    0.000000   -0.000000
    8.847688   -3.660190   -3.660190   -3.660190    0.000000    0.000000   -0.000000
    9.339226   -2.252632   -2.252632   -2.252632    0.000000    0.000000   -0.000000
    9.830765   -1.854890   -1.854890   -1.854890    0.000000    0.000000   -0.000000
   10.322303   -2.104127   -2.104127   -2.104127    0.000000    0.000000   -0.000000
   10.813841   -1.630255   -1.630255   -1.630255    0.000000    0.000000   -0.000000
   11.305379   -1.103988   -1.103988   -1.103988    0.000000    0.000000   -0.000000
   11.796918   -0.855748   -0.855748   -0.855748    0.000000    0.000000   -0.000000
   12.288456   -0.928887   -0.928887   -0.928887    0.000000    0.000000   -0.000000
   12.779994   -0.482917   -0.482917   -0.482917    0.000000    0.000000   -0.000000
   13.271532   -0.311142   -0.311142   -0.311142    0.000000    0.000000   -0.000000
   13.763071   -0.111898   -0.111898   -0.111898    0.000000    0.000000   -0.000000
   14.254609   -0.319179   -0.319179   -0.319179   -0.000000    0.000000   -0.000000
   14.746147   -0.142247   -0.142247   -0.142247    0.000000    0.000000   -0.000000
   15.237685   -0.253760   -0.253760   -0.253760    0.000000    0.000000   -0.000000
   15.729223   -0.087877   -0.087877   -0.087877    0.000000    0.000000   -0.000000
   16.220762    0.042279    0.042279    0.042279   -0.000000    0.000000   -0.000000
   16.712300    0.145056    0.145056    0.145056   -0.000000    0.000000   -0.000000
   17.203838    0.113474    0.113474    0.113474    0.000000    0.000000   -0.000000
   17.695376    0.200103    0.200103    0.200103    0.000000    0.000000   -0.000000
   18.186915    0.209622    0.209622    0.209622    0.000000    0.000000   -0.000000
   18.678453    0.265883    0.265883    0.265883   -0.000000    0.000000   -0.000000
   19.169991    0.320484    0.320484    0.320484    0.000000    0.000000   -0.000000
   19.661529    0.315639    0.315639    0.315639    0.000000    0.000000   -0.000000
   20.153068    0.405351    0.405351    0.405351    0.000000    0.000000   -0.000000
   20.644606    0.440268    0.440268    0.440268    0.000000    0.000000   -0.000000
   21.136144    0.467803    0.467803    0.467803    0.000000    0.000000   -0.000000
   21.627682    0.494505    0.494505    0.494505    0.000000    0.000000   -0.000000
   22.119221    0.505664    0.505664    0.505664    0.000000    0.000000   -0.000000
   22.610759    0.486144    0.486144    0.486144    0.000000    0.000000   -0.000000
   23.102297    0.545290    0.545290    0.545290    0.000000    0.000000   -0.000000
   23.593835    0.534577    0.534577    0.534577    0.000000    0.000000   -0.000000
   24.085373    0.534527    0.534527    0.534527    0.000000    0.000000   -0.000000
   24.576912    0.573292    0.573292    0.573292    0.000000    0.000000   -0.000000
   25.068450    0.604941    0.604941    0.604941    0.000000    0.000000   -0.000000
   25.559988    0.603755    0.603755    0.603755    0.000000    0.000000   -0.000000
   26.051526    0.646142    0.646142    0.646142    0.000000    0.000000   -0.000000
   26.543065    0.671125    0.671125    0.671125    0.000000    0.000000   -0.000000
   27.034603    0.665903    0.665903    0.665903    0.000000    0.000000   -0.000000
   27.526141    0.663450    0.663450    0.663450    0.000000    0.000000   -0.000000
   28.017679    0.700173    0.700173    0.700173    0.000000    0.000000   -0.000000
   28.509218    0.703332    0.703332    0.703332    0.000000    0.000000   -0.000000
   29.000756    0.731995    0.731995    0.731995    0.000000    0.000000   -0.000000
[...]
   90.934573    0.969788    0.969788    0.969788    0.000000    0.000000   -0.000000
   91.426111    0.970129    0.970129    0.970129    0.000000    0.000000   -0.000000
   91.917650    0.970463    0.970463    0.970463    0.000000    0.000000   -0.000000
   92.409188    0.970791    0.970791    0.970791    0.000000    0.000000   -0.000000
   92.900726    0.971114    0.971114    0.971114    0.000000    0.000000   -0.000000
   93.392264    0.971431    0.971431    0.971431    0.000000    0.000000   -0.000000
   93.883803    0.971743    0.971743    0.971743    0.000000    0.000000   -0.000000
   94.375341    0.972050    0.972050    0.972050    0.000000    0.000000   -0.000000
   94.866879    0.972351    0.972351    0.972351    0.000000    0.000000   -0.000000
   95.358417    0.972647    0.972647    0.972647    0.000000    0.000000   -0.000000
   95.849956    0.972938    0.972938    0.972938    0.000000    0.000000   -0.000000
   96.341494    0.973225    0.973225    0.973225    0.000000    0.000000   -0.000000
   96.833032    0.973506    0.973506    0.973506    0.000000    0.000000   -0.000000
   97.324570    0.973784    0.973784    0.973784    0.000000    0.000000   -0.000000
   97.816108    0.974056    0.974056    0.974056    0.000000    0.000000   -0.000000

 The outermost node in the dielectric function lies at epsilon=  16.1