 vasp.6.3.2 27Jun22 (build Dec 02 2024 22:47:12) complex

 executed on             LinuxIFC date 2024.12.20  11:42:03

 INCAR:
   SYSTEM = Si DFT Virtual Orbitals
   ENCUT = 500
   PREC = Accurate
   ISMEAR = 0
   SIGMA = 0.1
   IBRION = -1
   NSW = 0
   LDAU = .FALSE.
   LORBIT = 11
   NEDOS = 2000
   KPOINTS = automaticKPOINTS \= 5 5 5
   LORBIT = 11
   LORBIT = 11
   NEDOS = 2000
   LORBIT = 11
   NEDOS = 2000
   LORBIT = 11
   NEDOS = 2000

 POTCAR:    PAW_PBE Si_GW 04May2012
 POTCAR:    PAW_PBE Si_GW 04May2012
   VRHFIN =Si: s2p2

   TITEL  = PAW_PBE Si_GW 04May2012
   POMASS =   28.085; ZVAL   =    4.000    mass and valenz
   ENMAX  =  245.345; ENMIN  =  184.009 eV

  PAW_PBE Si_GW 04May2012               :

 POSCAR: system Si
  positions in cartesian coordinates
 exchange correlation table for  LEXCH =        8
   RHO(1)=    0.500       N(1)  =     2000
   RHO(2)=  100.500       N(2)  =     4000

 ion  position               nearest neighbor table
   1  0.000  0.000  0.000-   2 2.35   2 2.35   2 2.35   2 2.35
   2  0.250  0.250  0.250-   1 2.35   1 2.35   1 2.35   1 2.35

  LATTYP: Found a face centered cubic cell.
 ALAT       =     5.4300000000

  Lattice vectors:

 A1 = (   2.7150000000,   2.7150000000,   0.0000000000)
 A2 = (   0.0000000000,   2.7150000000,   2.7150000000)
 A3 = (   2.7150000000,   0.0000000000,   2.7150000000)

Analysis of symmetry for initial positions (statically):
 Subroutine PRICEL returns:
 Original cell was already a primitive cell.

 Routine SETGRP: Setting up the symmetry group for a
 face centered cubic supercell.

 Subroutine GETGRP returns: Found 48 space group operations
 (whereof 24 operations were pure point group operations)
 out of a pool of 48 trial point group operations.

The static configuration has the point symmetry T_d .
 The point group associated with its full space group is O_h .

Analysis of symmetry for dynamics (positions and initial velocities):
 Subroutine PRICEL returns:
 Original cell was already a primitive cell.

 Routine SETGRP: Setting up the symmetry group for a
 face centered cubic supercell.

 Subroutine GETGRP returns: Found 48 space group operations
 (whereof 24 operations were pure point group operations)
 out of a pool of 48 trial point group operations.

The dynamic configuration has the point symmetry T_d .
 The point group associated with its full space group is O_h .

 Subroutine INISYM returns: Found 48 space group operations
 (whereof 24 operations are pure point group operations),
 and found     1 'primitive' translations

                                     Primitive cell

  volume of cell :      40.0258

  direct lattice vectors                    reciprocal lattice vectors
     2.715000000  2.715000000  0.000000000     0.184162063  0.184162063 -0.184162063
     0.000000000  2.715000000  2.715000000    -0.184162063  0.184162063  0.184162063
     2.715000000  0.000000000  2.715000000     0.184162063 -0.184162063  0.184162063

  length of vectors
     3.839589822  3.839589822  3.839589822     0.318978049  0.318978049  0.318978049

  position of ions in fractional coordinates (direct lattice)
     0.000000000  0.000000000  0.000000000
     0.250000000  0.250000000  0.250000000

  ion indices of the primitive-cell ions
   primitive index   ion index
                 1           1
                 2           2

Automatic generation of k-mesh.
 Grid dimensions derived from KSPACING:
 generate k-points for:    5    5    5

 Generating k-lattice:

  Cartesian coordinates                     Fractional coordinates (reciprocal lattice)
     0.036832413  0.036832413 -0.036832413     0.200000000  0.000000000  0.000000000
    -0.036832413  0.036832413  0.036832413     0.000000000  0.200000000 -0.000000000
     0.036832413 -0.036832413  0.036832413    -0.000000000 -0.000000000  0.200000000

  Length of vectors
     0.063795610  0.063795610  0.063795610

  Shift w.r.t. Gamma in fractional coordinates (k-lattice)
     0.000000000  0.000000000  0.000000000

 Subroutine IBZKPT returns following result:

 Found     10 irreducible k-points:

 Following reciprocal coordinates:
            Coordinates               Weight
  0.000000  0.000000  0.000000      1.000000
  0.200000  0.000000 -0.000000      8.000000
  0.400000 -0.000000 -0.000000      8.000000
  0.200000  0.200000  0.000000      6.000000
  0.400000  0.200000 -0.000000     24.000000
 -0.400000  0.200000 -0.000000     24.000000
 -0.200000  0.200000  0.000000     12.000000
  0.400000  0.400000  0.000000      6.000000
 -0.400000  0.400000 -0.000000     12.000000
 -0.400000  0.400000  0.200000     24.000000

 Following cartesian coordinates:
            Coordinates               Weight
  0.000000  0.000000  0.000000      1.000000
  0.200000  0.200000 -0.200000      8.000000
  0.400000  0.400000 -0.400000      8.000000
  0.000000  0.400000  0.000000      6.000000
  0.200000  0.600000 -0.200000     24.000000
 -0.600000 -0.200000  0.600000     24.000000
 -0.400000 -0.000000  0.400000     12.000000
  0.000000  0.800000  0.000000      6.000000
 -0.800000  0.000000  0.800000     12.000000
 -0.600000 -0.200000  1.000000     24.000000

 SYSTEM =  Si DFT Virtual Orbitals
 POSCAR =  system Si

 Startparameter for this run:
   NWRITE =      2    write-flag & timer
   PREC   = accura    normal or accurate (medium, high low for compatibility)
   ISTART =      1    job   : 0-new  1-cont  2-samecut
   ICHARG =      0    charge: 1-file 2-atom 10-const
   ISPIN  =      1    spin polarized calculation?
   LNONCOLLINEAR =      F non collinear calculations
   LSORBIT =      F    spin-orbit coupling
   INIWAV =      1    electr: 0-lowe 1-rand  2-diag
   LASPH  =      F    aspherical Exc in radial PAW
 Electronic Relaxation 1
   ENCUT  =  500.0 eV  36.75 Ry    6.06 a.u.   7.00  7.00  7.00*2*pi/ulx,y,z
   ENINI  =  500.0     initial cutoff
   ENAUG  =  413.0 eV  augmentation charge cutoff
   NELM   =     60;   NELMIN=  2; NELMDL=  0     # of ELM steps
   EDIFF  = 0.1E-03   stopping-criterion for ELM
   LREAL  =      F    real-space projection
   NLSPLINE    = F    spline interpolate recip. space projectors
   LCOMPAT=      F    compatible to vasp.4.4
   GGA_COMPAT  = T    GGA compatible to vasp.4.4-vasp.4.6
   LMAXPAW     = -100 max onsite density
   LMAXMIX     =    2 max onsite mixed and CHGCAR
   VOSKOWN=      0    Vosko Wilk Nusair interpolation
   ROPT   =    0.00000
 Ionic relaxation
   EDIFFG = 0.1E-02   stopping-criterion for IOM
   NSW    =      0    number of steps for IOM
   NBLOCK =      1;   KBLOCK =      1    inner block; outer block
   IBRION =     -1    ionic relax: 0-MD 1-quasi-New 2-CG
   NFREE  =      0    steps in history (QN), initial steepest desc. (CG)
   ISIF   =      2    stress and relaxation
   IWAVPR =     10    prediction:  0-non 1-charg 2-wave 3-comb
   ISYM   =      2    0-nonsym 1-usesym 2-fastsym
   LCORR  =      T    Harris-Foulkes like correction to forces

   POTIM  = 0.5000    time-step for ionic-motion
   TEIN   =    0.0    initial temperature
   TEBEG  =    0.0;   TEEND  =   0.0 temperature during run
   SMASS  =  -3.00    Nose mass-parameter (am)
   estimated Nose-frequenzy (Omega)   =  0.10E-29 period in steps = 0.13E+47 mass=  -0.337E-27a.u.
   SCALEE = 1.0000    scale energy and forces
   NPACO  =    256;   APACO  = 10.0  distance and # of slots for P.C.
   PSTRESS=    0.0 pullay stress

  Mass of Ions in am
   POMASS =  28.09
  Ionic Valenz
   ZVAL   =   4.00
  Atomic Wigner-Seitz radii
  virtual crystal weights
   VCA    =   1.00
   NELECT =       8.0000    total number of electrons
   NUPDOWN=      -1.0000    fix difference up-down

 DOS related values:
   EMIN   =  10.00;   EMAX   =-10.00  energy-range for DOS
   EFERMI =   0.00
   ISMEAR =     0;   SIGMA  =   0.10  broadening in eV -4-tet -1-fermi 0-gaus

 Electronic relaxation 2 (details)
   IALGO  =     38    algorithm
   LDIAG  =      T    sub-space diagonalisation (order eigenvalues)
   LSUBROT=      F    optimize rotation matrix (better conditioning)
   TURBO    =      0    0=normal 1=particle mesh
   IRESTART =      0    0=no restart 2=restart with 2 vectors
   NREBOOT  =      0    no. of reboots
   NMIN     =      0    reboot dimension
   EREF     =   0.00    reference energy to select bands
   IMIX   =      4    mixing-type and parameters
     AMIX     =   0.40;   BMIX     =  1.00
     AMIX_MAG =   1.60;   BMIX_MAG =  1.00
     AMIN     =   0.10
     WC   =   100.;   INIMIX=   1;  MIXPRE=   1;  MAXMIX= -45

 Intra band minimization:
   WEIMIN = 0.0000     energy-eigenvalue tresh-hold
   EBREAK =  0.31E-05  absolut break condition
   DEPER  =   0.30     relativ break condition

   TIME   =   0.40     timestep for ELM

  volume/ion in A,a.u.               =      20.01       135.05
  Fermi-wavevector in a.u.,A,eV,Ry     =   0.957176  1.808800 12.465458  0.916185
  Thomas-Fermi vector in A             =   2.086170

 Write flags
   LWAVE        =      T    write WAVECAR
   LDOWNSAMPLE  =      F    k-point downsampling of WAVECAR
   LCHARG       =      T    write CHGCAR
   LVTOT        =      F    write LOCPOT, total local potential
   LVHAR        =      F    write LOCPOT, Hartree potential only
   LELF         =      F    write electronic localiz. function (ELF)
   LORBIT       =     11    0 simple, 1 ext, 2 COOP (PROOUT), +10 PAW based schemes

 Dipole corrections
   LMONO  =      F    monopole corrections only (constant potential shift)
   LDIPOL =      F    correct potential (dipole corrections)
   IDIPOL =      0    1-x, 2-y, 3-z, 4-all directions
   EPSILON=  1.0000000 bulk dielectric constant

 Exchange correlation treatment:
   GGA     =    --    GGA type
   VOSKOWN =     0    Vosko Wilk Nusair interpolation
   LHFCALC =     F    Hartree Fock is set to
   LHFONE  =     F    Hartree Fock one center treatment
   AEXX    =    0.0000 exact exchange contribution

 Linear response parameters
   LEPSILON=     F    determine dielectric tensor
   LRPA    =     F    only Hartree local field effects (RPA)
   LNABLA  =     F    use nabla operator in PAW spheres
   LVEL    =     F    velocity operator in full k-point grid
   CSHIFT  =0.1000    complex shift for real part using Kramers Kronig
   OMEGAMAX=  -1.0    maximum frequency
   DEG_THRESHOLD= 0.2000000E-02 threshold for treating states as degnerate
   RTIME   =   -0.100 relaxation time in fs
  (WPLASMAI=    0.000 imaginary part of plasma frequency in eV, 0.658/RTIME)
   DFIELD  = 0.0000000 0.0000000 0.0000000 field for delta impulse in time

  Optional k-point grid parameters
   LKPOINTS_OPT  =     F    use optional k-point grid
   KPOINTS_OPT_MODE=     1    mode for optional k-point grid

 Orbital magnetization related:
   ORBITALMAG=     F  switch on orbital magnetization
   LCHIMAG   =     F  perturbation theory with respect to B field
   DQ        =  0.001000  dq finite difference perturbation B field
   LLRAUG    =     F  two centre corrections for induced B field

 Static calculation
 charge density and potential will be updated during run
 non-spin polarized calculation
 Variant of blocked Davidson
 Davidson routine will perform the subspace rotation
 perform sub-space diagonalisation
    after iterative eigenvector-optimisation
 modified Broyden-mixing scheme, WC =      100.0
 initial mixing is a Kerker type mixing with AMIX =  0.4000 and BMIX =      1.0000
 Hartree-type preconditioning will be used
 using additional bands            4
 reciprocal scheme for non local part
 use partial core corrections
 calculate Harris-corrections to forces
   (improved forces if not selfconsistent)
 use gradient corrections
 use of overlap-Matrix (Vanderbilt PP)
 Gauss-broadening in eV      SIGMA  =   0.10

  energy-cutoff  :      500.00
  volume of cell :       40.03
      direct lattice vectors                 reciprocal lattice vectors
     2.715000000  2.715000000  0.000000000     0.184162063  0.184162063 -0.184162063
     0.000000000  2.715000000  2.715000000    -0.184162063  0.184162063  0.184162063
     2.715000000  0.000000000  2.715000000     0.184162063 -0.184162063  0.184162063

[...]

 old parameters found on file WAVECAR:
  energy-cutoff  :      500.00
  volume of cell :       40.03
      direct lattice vectors                 reciprocal lattice vectors
     2.715000000  2.715000000  0.000000000     0.184162063  0.184162063 -0.184162063
     0.000000000  2.715000000  2.715000000    -0.184162063  0.184162063  0.184162063
     2.715000000  0.000000000  2.715000000     0.184162063 -0.184162063  0.184162063

  length of vectors

 k-points in units of 2pi/SCALE and weight: read from INCAR
   0.00000000  0.00000000  0.00000000       0.008
   0.20000000  0.20000000 -0.20000000       0.064
   0.40000000  0.40000000 -0.40000000       0.064
   0.00000000  0.40000000  0.00000000       0.048
   0.20000000  0.60000000 -0.20000000       0.192
  -0.60000000 -0.20000000  0.60000000       0.192
  -0.40000000 -0.00000000  0.40000000       0.096
   0.00000000  0.80000000  0.00000000       0.048
  -0.80000000  0.00000000  0.80000000       0.096
  -0.60000000 -0.20000000  1.00000000       0.192

 k-points in reciprocal lattice and weights: read from INCAR
   0.00000000  0.00000000  0.00000000       0.008
   0.20000000  0.00000000 -0.00000000       0.064
   0.40000000 -0.00000000 -0.00000000       0.064
   0.20000000  0.20000000  0.00000000       0.048
   0.40000000  0.20000000 -0.00000000       0.192
  -0.40000000  0.20000000 -0.00000000       0.192
  -0.20000000  0.20000000  0.00000000       0.096
   0.40000000  0.40000000  0.00000000       0.048
  -0.40000000  0.40000000 -0.00000000       0.096
  -0.40000000  0.40000000  0.20000000       0.192

 position of ions in fractional coordinates (direct lattice)
   0.00000000  0.00000000  0.00000000
   0.25000000  0.25000000  0.25000000

 position of ions in cartesian coordinates  (Angst):
   0.00000000  0.00000000  0.00000000
   1.35750000  1.35750000  1.35750000

 k-point   1 :   0.0000 0.0000 0.0000  plane waves:     965
 k-point   2 :   0.2000 0.0000-0.0000  plane waves:    1001
 k-point   3 :   0.4000-0.0000-0.0000  plane waves:    1017
 k-point   4 :   0.2000 0.2000 0.0000  plane waves:     998
 k-point   5 :   0.4000 0.2000-0.0000  plane waves:    1011
 k-point   6 :  -0.4000 0.2000-0.0000  plane waves:    1012
 k-point   7 :  -0.2000 0.2000 0.0000  plane waves:    1015
 k-point   8 :   0.4000 0.4000 0.0000  plane waves:    1014
 k-point   9 :  -0.4000 0.4000-0.0000  plane waves:    1015
 k-point  10 :  -0.4000 0.4000 0.2000  plane waves:    1031

 maximum and minimum number of plane-waves per node :      1031      965

 maximum number of plane-waves:      1031
 maximum index in each direction:
   IXMAX=    7   IYMAX=    6   IZMAX=    6
   IXMIN=   -7   IYMIN=   -7   IZMIN=   -7

 serial   3D FFT for wavefunctions
 parallel 3D FFT for charge:
    minimum data exchange during FFTs selected (reduces bandwidth)

 Broyden mixing: mesh for mixing (old mesh)
   NGX = 13   NGY = 13   NGZ = 13
  (NGX  = 56   NGY  = 56   NGZ  = 56)
  gives a total of   2197 points

 charge density for first step will be calculated from the start-wavefunctions

 Maximum index for augmentation-charges        26107 (set IRDMAX)

 initial charge from wavefunction
 First call to EWALD:  gamma=   0.518
 Maximum number of real-space cells 3x 3x 3
 Maximum number of reciprocal cells 3x 3x 3

--------------------------------------- Iteration      1(   1)  ---------------------------------------

 eigenvalue-minimisations  :    80
 total energy-change (2. order) :-0.1077603E+02  (-0.2614198E-10)
 number of electron       8.0000000 magnetization
 augmentation part       -0.4731576 magnetization

 Broyden mixing:
  rms(total) = 0.24096E-06    rms(broyden)= 0.24095E-06
  rms(prec ) = 0.80543E-06
  weight for this iteration     100.00

 Free energy of the ion-electron system (eV)
  alpha Z        PSCENC =         6.08881246
  Ewald energy   TEWEN  =      -228.56352493
  -Hartree energ DENC   =       -15.06340428
  -exchange      EXHF   =         0.00000000
  -V(xc)+E(xc)   XCENC  =       -18.19815590
  PAW double counting   =       258.99924098     -223.56626076
  entropy T*S    EENTRO =        -0.00000100
  eigenvalues    EBANDS =         3.39474506
  atomic energy  EATOM  =       206.13251344
  Solvation  Ediel_sol  =         0.00000000
  free energy    TOTEN  =       -10.77603492 eV

  energy without entropy =      -10.77603392  energy(sigma->0) =      -10.77603442

--------------------------------------- Iteration      1(   2)  ---------------------------------------

 eigenvalue-minimisations  :    80
 total energy-change (2. order) :-0.7154028E-09  (-0.1586569E-10)
 number of electron       8.0000000 magnetization
 augmentation part       -0.4731576 magnetization

 Free energy of the ion-electron system (eV)
  alpha Z        PSCENC =         6.08881246
  Ewald energy   TEWEN  =      -228.56352493
  -Hartree energ DENC   =       -15.06340579
  -exchange      EXHF   =         0.00000000
  -V(xc)+E(xc)   XCENC  =       -18.19815606
  PAW double counting   =       258.99922530     -223.56624527
  entropy T*S    EENTRO =        -0.00000100
  eigenvalues    EBANDS =         3.39474692
  atomic energy  EATOM  =       206.13251344
  Solvation  Ediel_sol  =         0.00000000
  free energy    TOTEN  =       -10.77603492 eV

  energy without entropy =      -10.77603392  energy(sigma->0) =      -10.77603442

 average (electrostatic) potential at core
  the test charge radii are     1.1243
  (the norm of the test charge is              1.0000)
       1 -67.0141       2 -67.0141

 E-fermi :   5.7658     XC(G=0):  -9.3882     alpha+bet :-11.6158

 Fermi energy:         5.7657894443

 k-point     1 :       0.0000    0.0000    0.0000
  band No.  band energies     occupation
      1      -6.4825      2.00000
      2       5.4843      1.99993
      3       5.4843      1.99993
      4       5.4843      1.99993
      5       8.0417      0.00000
      6       8.0417      0.00000
      7       8.0417      0.00000
      8       8.8529      0.00000

[...]

 k-point    10 :      -0.4000    0.4000    0.2000
  band No.  band energies     occupation
      1      -3.3291      2.00000
      2      -1.0796      2.00000
      3       1.4988      2.00000
      4       2.4869      2.00000
      5       8.8766      0.00000
      6       9.2515      0.00000
      7       9.9152      0.00000
      8      13.2708      0.00000

 soft charge-density along one line, spin component           1
         0         1         2         3         4         5         6         7         8         9
 total charge-density along one line

------------------------ aborting loop because EDIFF is reached ----------------------------------------

 total charge

# of ion       s       p       d       tot
    1        0.732   0.935   0.061   1.728
    2        0.732   0.935   0.061   1.728
tot          1.464   1.871   0.122   3.457

  FORCE on cell =-STRESS in cart. coord.  units (eV):
  Direction    XX          YY          ZZ          XY          YZ          ZX
  Alpha Z     6.08881     6.08881     6.08881
  Ewald     -76.18788   -76.18788   -76.18788    -0.00000     0.00000    -0.00000
  Hartree     5.02114     5.02114     5.02114     0.00000     0.00000     0.00000
  E(xc)     -25.18324   -25.18324   -25.18324     0.00000     0.00000     0.00000
  Local     -26.53699   -26.53699   -26.53699     0.00000     0.00000     0.00000
  n-local    73.38215    67.98515    72.87896    -0.96004     0.73703     2.33912
  augment   -11.01152   -11.01152   -11.01152    -0.00000    -0.00000    -0.00000
  Kinetic    57.21026    54.86051    58.80143    -1.00022     0.92895     3.73962
  Fock        0.00000     0.00000     0.00000     0.00000     0.00000     0.00000
  Total       0.56315     0.56315     0.56315     0.00000     0.00000    -0.00000
  in kB      22.54227    22.54227    22.54227     0.00000     0.00000    -0.00000

 VOLUME and BASIS-vectors are now :
  energy-cutoff  :      500.00
  volume of cell :       40.03
      direct lattice vectors                 reciprocal lattice vectors
     2.715000000  2.715000000  0.000000000     0.184162063  0.184162063 -0.184162063
     0.000000000  2.715000000  2.715000000    -0.184162063  0.184162063  0.184162063
     2.715000000  0.000000000  2.715000000     0.184162063 -0.184162063  0.184162063

  length of vectors
     3.839589822  3.839589822  3.839589822     0.318978049  0.318978049  0.318978049

 FORCES acting on ions
    electron-ion (+dipol)            ewald-force                    non-local-force                 convergence-correction
   0.145E-07 0.575E-08 0.145E-07   -.326E-14 0.274E-14 0.141E-14   0.500E-17 0.352E-16 0.674E-16   0.139E-11 0.140E-11 0.139E-11
   -.145E-07 -.575E-08 -.145E-07   0.284E-14 -.258E-14 -.126E-14   -.409E-17 -.444E-16 -.457E-16   -.140E-11 -.140E-11 -.140E-11
   0.593E-13 -.671E-14 0.108E-12   -.426E-15 0.164E-15 0.147E-15   0.911E-18 -.927E-17 0.217E-16   -.573E-14 -.984E-15 -.522E-14

 POSITION                                       TOTAL-FORCE (eV/Angst)
      0.00000      0.00000      0.00000         0.000000      0.000000      0.000000
      1.35750      1.35750      1.35750        -0.000000     -0.000000     -0.000000
    total drift:                                0.000000     -0.000000      0.000000

  FREE ENERGIE OF THE ION-ELECTRON SYSTEM (eV)
  free  energy   TOTEN  =       -10.77603492 eV

  energy  without entropy=      -10.77603392  energy(sigma->0) =      -10.77603442

 writing wavefunctions

 total charge

# of ion       s       p       d       tot
    1        0.732   0.935   0.061   1.728
    2        0.732   0.935   0.061   1.728
tot          1.464   1.871   0.122   3.457