 vasp.6.3.2 27Jun22 (build Dec 02 2024 22:47:12) complex

 executed on             LinuxIFC date 2024.12.19  21:20:51

 INCAR:
   SYSTEM = Silicon
   ENCUT = 520
   PREC = Accurate
   ISMEAR = 1
   SIGMA = 0.1
   IBRION = 2
   ISIF = 3
   NSW = 50
   EDIFF = 1E-6
   EDIFFG = -0.02
   ALGO = Normal
   LREAL = Auto
   KSPACING = 0.2

 POTCAR:    PAW_PBE Si_GW 04May2012
 POTCAR:    PAW_PBE Si_GW 04May2012
   VRHFIN =Si: s2p2

   TITEL  = PAW_PBE Si_GW 04May2012
   POMASS =   28.085; ZVAL   =    4.000    mass and valenz
   ENMAX  =  245.345; ENMIN  =  184.009 eV

 Optimization of the real space projectors (new method)

 maximal supplied QI-value         = 19.84
 optimisation between [QCUT,QGAM] = [ 11.51, 23.22] = [ 37.09,150.92] Ry
 Optimized for a Real-space Cutoff    1.21 Angstroem

   l    n(q)    QCUT    max X(q) W(low)/X(q) W(high)/X(q)  e(spline)
   0      8    11.508    10.962    0.58E-04    0.76E-04    0.35E-07
   0      8    11.508     6.742    0.70E-04    0.11E-03    0.52E-07
   1      8    11.508     7.662    0.12E-03    0.10E-03    0.11E-06
   1      8    11.508     3.141    0.98E-04    0.65E-04    0.79E-07
   2      7    11.508     2.974    0.16E-03    0.28E-03    0.14E-06
   2      7    11.508     1.249    0.13E-03    0.27E-03    0.14E-06
  PAW_PBE Si_GW 04May2012               :

 POSCAR: system Si
  positions in cartesian coordinates
 exchange correlation table for  LEXCH =        8
   RHO(1)=    0.500       N(1)  =     2000
   RHO(2)=  100.500       N(2)  =     4000

 ion  position               nearest neighbor table
   1  0.000  0.000  0.000-   2 2.35   2 2.35   2 2.35   2 2.35
   2  0.250  0.250  0.250-   1 2.35   1 2.35   1 2.35   1 2.35

  LATTYP: Found a face centered cubic cell.
 ALAT       =     5.4300000000

  Lattice vectors:

 A1 = (   2.7150000000,   2.7150000000,   0.0000000000)
 A2 = (   0.0000000000,   2.7150000000,   2.7150000000)
 A3 = (   2.7150000000,   0.0000000000,   2.7150000000)

Analysis of symmetry for initial positions (statically):
 Subroutine PRICEL returns:
 Original cell was already a primitive cell.

 Routine SETGRP: Setting up the symmetry group for a
 face centered cubic supercell.

 Subroutine GETGRP returns: Found 48 space group operations
 (whereof 24 operations were pure point group operations)
 out of a pool of 48 trial point group operations.

The static configuration has the point symmetry T_d .
 The point group associated with its full space group is O_h .

Analysis of symmetry for dynamics (positions and initial velocities):
 Subroutine PRICEL returns:
 Original cell was already a primitive cell.

 Routine SETGRP: Setting up the symmetry group for a
 face centered cubic supercell.

 Subroutine GETGRP returns: Found 48 space group operations
 (whereof 24 operations were pure point group operations)
 out of a pool of 48 trial point group operations.

The dynamic configuration has the point symmetry T_d .
 The point group associated with its full space group is O_h .

 Subroutine INISYM returns: Found 48 space group operations
 (whereof 24 operations are pure point group operations),
 and found     1 'primitive' translations

                                     Primitive cell

  volume of cell :      40.0258

  direct lattice vectors                    reciprocal lattice vectors
     2.715000000  2.715000000  0.000000000     0.184162063  0.184162063 -0.184162063
     0.000000000  2.715000000  2.715000000    -0.184162063  0.184162063  0.184162063
     2.715000000  0.000000000  2.715000000     0.184162063 -0.184162063  0.184162063

  length of vectors
     3.839589822  3.839589822  3.839589822     0.318978049  0.318978049  0.318978049

  position of ions in fractional coordinates (direct lattice)
     0.000000000  0.000000000  0.000000000
     0.250000000  0.250000000  0.250000000

  ion indices of the primitive-cell ions
   primitive index   ion index
                 1           1
                 2           2

Automatic generation of k-mesh.
 Grid dimensions derived from KSPACING:
 generate k-points for:   11   11   11

 Generating k-lattice:

  Cartesian coordinates                     Fractional coordinates (reciprocal lattice)
     0.016742006  0.016742006 -0.016742006     0.090909091 -0.000000000 -0.000000000
    -0.016742006  0.016742006  0.016742006    -0.000000000  0.090909091  0.000000000
     0.016742006 -0.016742006  0.016742006     0.000000000  0.000000000  0.090909091

  Length of vectors
     0.028998004  0.028998004  0.028998004

  Shift w.r.t. Gamma in fractional coordinates (k-lattice)
     0.000000000  0.000000000  0.000000000

 Subroutine IBZKPT returns following result:

 Found     56 irreducible k-points:

 Following reciprocal coordinates:
            Coordinates               Weight
  0.000000  0.000000  0.000000      1.000000
  0.090909  0.000000 -0.000000      8.000000
  0.181818 -0.000000 -0.000000      8.000000
  0.272727 -0.000000  0.000000      8.000000
  0.363636 -0.000000  0.000000      8.000000
  0.454545  0.000000  0.000000      8.000000
  0.090909  0.090909  0.000000      6.000000
  0.181818  0.090909 -0.000000     24.000000
  0.272727  0.090909 -0.000000     24.000000
  0.363636  0.090909  0.000000     24.000000
  0.454545  0.090909  0.000000     24.000000
 -0.454545  0.090909  0.000000     24.000000
 -0.363636  0.090909 -0.000000     24.000000
 -0.272727  0.090909 -0.000000     24.000000
 -0.181818  0.090909 -0.000000     24.000000
 -0.090909  0.090909  0.000000     12.000000
  0.181818  0.181818  0.000000      6.000000
  0.272727  0.181818 -0.000000     24.000000
  0.363636  0.181818 -0.000000     24.000000
  0.454545  0.181818  0.000000     24.000000
 -0.454545  0.181818  0.000000     24.000000
 -0.363636  0.181818  0.000000     24.000000
 -0.272727  0.181818 -0.000000     24.000000
 -0.181818  0.181818 -0.000000     12.000000
  0.272727  0.272727  0.000000      6.000000
  0.363636  0.272727 -0.000000     24.000000
  0.454545  0.272727 -0.000000     24.000000
 -0.454545  0.272727  0.000000     24.000000
 -0.363636  0.272727  0.000000     24.000000
 -0.272727  0.272727  0.000000     12.000000
  0.363636  0.363636  0.000000      6.000000
  0.454545  0.363636 -0.000000     24.000000
 -0.454545  0.363636 -0.000000     24.000000
 -0.363636  0.363636  0.000000     12.000000
  0.454545  0.454545  0.000000      6.000000
 -0.454545  0.454545 -0.000000     12.000000
  0.272727  0.181818  0.090909     24.000000
  0.363636  0.181818  0.090909     48.000000
  0.454545  0.181818  0.090909     48.000000
 -0.454545  0.181818  0.090909     48.000000
  0.363636  0.272727  0.090909     24.000000
  0.454545  0.272727  0.090909     48.000000
 -0.454545  0.272727  0.090909     48.000000
 -0.363636  0.272727  0.090909     48.000000
 -0.272727  0.272727  0.090909     48.000000
 -0.181818  0.272727  0.090909     24.000000
  0.454545  0.363636  0.090909     24.000000
 -0.454545  0.363636  0.090909     48.000000
 -0.363636  0.363636  0.090909     48.000000
 -0.272727  0.363636  0.090909     24.000000
 -0.454545  0.454545  0.090909     24.000000
 -0.363636  0.454545  0.090909     24.000000
 -0.454545  0.363636  0.181818     24.000000
 -0.363636  0.363636  0.181818     48.000000
 -0.363636  0.454545  0.181818     24.000000
 -0.272727  0.454545  0.181818     24.000000

 Following cartesian coordinates:
            Coordinates               Weight
  0.000000  0.000000  0.000000      1.000000
  0.090909  0.090909 -0.090909      8.000000
  0.181818  0.181818 -0.181818      8.000000
  0.272727  0.272727 -0.272727      8.000000
  0.363636  0.363636 -0.363636      8.000000
  0.454545  0.454545 -0.454545      8.000000
  0.000000  0.181818  0.000000      6.000000
  0.090909  0.272727 -0.090909     24.000000
  0.181818  0.363636 -0.181818     24.000000
  0.272727  0.454545 -0.272727     24.000000
  0.363636  0.545455 -0.363636     24.000000
 -0.545455 -0.363636  0.545455     24.000000
 -0.454545 -0.272727  0.454545     24.000000
 -0.363636 -0.181818  0.363636     24.000000
 -0.272727 -0.090909  0.272727     24.000000
 -0.181818 -0.000000  0.181818     12.000000
  0.000000  0.363636  0.000000      6.000000
  0.090909  0.454545 -0.090909     24.000000
  0.181818  0.545455 -0.181818     24.000000
  0.272727  0.636364 -0.272727     24.000000
 -0.636364 -0.272727  0.636364     24.000000
 -0.545455 -0.181818  0.545455     24.000000
 -0.454545 -0.090909  0.454545     24.000000
 -0.363636  0.000000  0.363636     12.000000
  0.000000  0.545455 -0.000000      6.000000
  0.090909  0.636364 -0.090909     24.000000
  0.181818  0.727273 -0.181818     24.000000
 -0.727273 -0.181818  0.727273     24.000000
 -0.636364 -0.090909  0.636364     24.000000
 -0.545455 -0.000000  0.545455     12.000000
  0.000000  0.727273  0.000000      6.000000
  0.090909  0.818182 -0.090909     24.000000
 -0.818182 -0.090909  0.818182     24.000000
 -0.727273 -0.000000  0.727273     12.000000
  0.000000  0.909091  0.000000      6.000000
 -0.909091  0.000000  0.909091     12.000000
  0.181818  0.363636 -0.000000     24.000000
  0.272727  0.454545 -0.090909     48.000000
  0.363636  0.545455 -0.181818     48.000000
 -0.545455 -0.363636  0.727273     48.000000
  0.181818  0.545455 -0.000000     24.000000
  0.272727  0.636364 -0.090909     48.000000
 -0.636364 -0.272727  0.818182     48.000000
 -0.545455 -0.181818  0.727273     48.000000
 -0.454545 -0.090909  0.636364     48.000000
 -0.363636  0.000000  0.545455     24.000000
  0.181818  0.727273  0.000000     24.000000
 -0.727273 -0.181818  0.909091     48.000000
 -0.636364 -0.090909  0.818182     48.000000
 -0.545455 -0.000000  0.727273     24.000000
 -0.818182 -0.090909  1.000000     24.000000
 -0.727273 -0.000000  0.909091     24.000000
 -0.636364 -0.272727  1.000000     24.000000
 -0.545455 -0.181818  0.909091     48.000000
 -0.636364 -0.090909  1.000000     24.000000
 -0.545455 -0.000000  0.909091     24.000000

 SYSTEM =  Silicon
 POSCAR =  system Si

 Startparameter for this run:
   NWRITE =      2    write-flag & timer
   PREC   = accura    normal or accurate (medium, high low for compatibility)
   ISTART =      0    job   : 0-new  1-cont  2-samecut
   ICHARG =      2    charge: 1-file 2-atom 10-const
   ISPIN  =      1    spin polarized calculation?
   LNONCOLLINEAR =      F non collinear calculations
   LSORBIT =      F    spin-orbit coupling
   INIWAV =      1    electr: 0-lowe 1-rand  2-diag
   LASPH  =      F    aspherical Exc in radial PAW
 Electronic Relaxation 1
   ENCUT  =  520.0 eV  38.22 Ry    6.18 a.u.   7.14  7.14  7.14*2*pi/ulx,y,z
   ENINI  =  520.0     initial cutoff
   ENAUG  =  413.0 eV  augmentation charge cutoff
   NELM   =     60;   NELMIN=  2; NELMDL= -5     # of ELM steps
   EDIFF  = 0.1E-05   stopping-criterion for ELM
   LREAL  =      T    real-space projection
   NLSPLINE    = F    spline interpolate recip. space projectors
   LCOMPAT=      F    compatible to vasp.4.4
   GGA_COMPAT  = T    GGA compatible to vasp.4.4-vasp.4.6
   LMAXPAW     = -100 max onsite density
   LMAXMIX     =    2 max onsite mixed and CHGCAR
   VOSKOWN=      0    Vosko Wilk Nusair interpolation
   ROPT   =   -0.00025
 Ionic relaxation
   EDIFFG = -.2E-01   stopping-criterion for IOM
[...]
   0.45454545  0.27272727 -0.00000000       0.018
  -0.45454545  0.27272727  0.00000000       0.018
  -0.36363636  0.27272727  0.00000000       0.018
  -0.27272727  0.27272727  0.00000000       0.009
   0.36363636  0.36363636  0.00000000       0.005
   0.45454545  0.36363636 -0.00000000       0.018
  -0.45454545  0.36363636 -0.00000000       0.018
  -0.36363636  0.36363636  0.00000000       0.009
   0.45454545  0.45454545  0.00000000       0.005
  -0.45454545  0.45454545 -0.00000000       0.009
   0.27272727  0.18181818  0.09090909       0.018
   0.36363636  0.18181818  0.09090909       0.036
   0.45454545  0.18181818  0.09090909       0.036
  -0.45454545  0.18181818  0.09090909       0.036
   0.36363636  0.27272727  0.09090909       0.018
   0.45454545  0.27272727  0.09090909       0.036
  -0.45454545  0.27272727  0.09090909       0.036
  -0.36363636  0.27272727  0.09090909       0.036
  -0.27272727  0.27272727  0.09090909       0.036
  -0.18181818  0.27272727  0.09090909       0.018
   0.45454545  0.36363636  0.09090909       0.018
  -0.45454545  0.36363636  0.09090909       0.036
  -0.36363636  0.36363636  0.09090909       0.036
  -0.27272727  0.36363636  0.09090909       0.018
  -0.45454545  0.45454545  0.09090909       0.018
  -0.36363636  0.45454545  0.09090909       0.018
  -0.45454545  0.36363636  0.18181818       0.018
  -0.36363636  0.36363636  0.18181818       0.036
  -0.36363636  0.45454545  0.18181818       0.018
  -0.27272727  0.45454545  0.18181818       0.018

 position of ions in fractional coordinates (direct lattice)
   0.00000000  0.00000000  0.00000000
   0.25000000  0.25000000  0.25000000

 position of ions in cartesian coordinates  (Angst):
   0.00000000  0.00000000  0.00000000
   1.35750000  1.35750000  1.35750000

 k-point   1 :   0.0000 0.0000 0.0000  plane waves:    1067
 k-point   2 :   0.0909 0.0000-0.0000  plane waves:    1076
 k-point   3 :   0.1818-0.0000-0.0000  plane waves:    1074
 k-point   4 :   0.2727-0.0000 0.0000  plane waves:    1077
 k-point   5 :   0.3636-0.0000 0.0000  plane waves:    1083
 k-point   6 :   0.4545 0.0000 0.0000  plane waves:    1074
 k-point   7 :   0.0909 0.0909 0.0000  plane waves:    1074
 k-point   8 :   0.1818 0.0909-0.0000  plane waves:    1071
 k-point   9 :   0.2727 0.0909-0.0000  plane waves:    1071
 k-point  10 :   0.3636 0.0909 0.0000  plane waves:    1078
 k-point  11 :   0.4545 0.0909 0.0000  plane waves:    1077
 k-point  12 :  -0.4545 0.0909 0.0000  plane waves:    1082
 k-point  13 :  -0.3636 0.0909-0.0000  plane waves:    1079
 k-point  14 :  -0.2727 0.0909-0.0000  plane waves:    1079
 k-point  15 :  -0.1818 0.0909-0.0000  plane waves:    1069
 k-point  16 :  -0.0909 0.0909 0.0000  plane waves:    1063
 k-point  17 :   0.1818 0.1818 0.0000  plane waves:    1062
 k-point  18 :   0.2727 0.1818-0.0000  plane waves:    1068
 k-point  19 :   0.3636 0.1818-0.0000  plane waves:    1078
 k-point  20 :   0.4545 0.1818 0.0000  plane waves:    1084
 k-point  21 :  -0.4545 0.1818 0.0000  plane waves:    1081
 k-point  22 :  -0.3636 0.1818 0.0000  plane waves:    1082
 k-point  23 :  -0.2727 0.1818-0.0000  plane waves:    1072
 k-point  24 :  -0.1818 0.1818-0.0000  plane waves:    1075
 k-point  25 :   0.2727 0.2727 0.0000  plane waves:    1074
 k-point  26 :   0.3636 0.2727-0.0000  plane waves:    1061
 k-point  27 :   0.4545 0.2727-0.0000  plane waves:    1078
 k-point  28 :  -0.4545 0.2727 0.0000  plane waves:    1088
 k-point  29 :  -0.3636 0.2727 0.0000  plane waves:    1087
 k-point  30 :  -0.2727 0.2727 0.0000  plane waves:    1083
 k-point  31 :   0.3636 0.3636 0.0000  plane waves:    1070
 k-point  32 :   0.4545 0.3636-0.0000  plane waves:    1076
 k-point  33 :  -0.4545 0.3636-0.0000  plane waves:    1082
 k-point  34 :  -0.3636 0.3636 0.0000  plane waves:    1073
 k-point  35 :   0.4545 0.4545 0.0000  plane waves:    1082
 k-point  36 :  -0.4545 0.4545-0.0000  plane waves:    1078
 k-point  37 :   0.2727 0.1818 0.0909  plane waves:    1069
 k-point  38 :   0.3636 0.1818 0.0909  plane waves:    1074
 k-point  39 :   0.4545 0.1818 0.0909  plane waves:    1083
 k-point  40 :  -0.4545 0.1818 0.0909  plane waves:    1085
 k-point  41 :   0.3636 0.2727 0.0909  plane waves:    1066
 k-point  42 :   0.4545 0.2727 0.0909  plane waves:    1075
 k-point  43 :  -0.4545 0.2727 0.0909  plane waves:    1073
 k-point  44 :  -0.3636 0.2727 0.0909  plane waves:    1082
 k-point  45 :  -0.2727 0.2727 0.0909  plane waves:    1079
 k-point  46 :  -0.1818 0.2727 0.0909  plane waves:    1068
 k-point  47 :   0.4545 0.3636 0.0909  plane waves:    1069
 k-point  48 :  -0.4545 0.3636 0.0909  plane waves:    1079
 k-point  49 :  -0.3636 0.3636 0.0909  plane waves:    1086
 k-point  50 :  -0.2727 0.3636 0.0909  plane waves:    1092
 k-point  51 :  -0.4545 0.4545 0.0909  plane waves:    1080
 k-point  52 :  -0.3636 0.4545 0.0909  plane waves:    1083
 k-point  53 :  -0.4545 0.3636 0.1818  plane waves:    1078
 k-point  54 :  -0.3636 0.3636 0.1818  plane waves:    1076
 k-point  55 :  -0.3636 0.4545 0.1818  plane waves:    1081
 k-point  56 :  -0.2727 0.4545 0.1818  plane waves:    1083

 maximum and minimum number of plane-waves per node :      1092     1061

 maximum number of plane-waves:      1092
 maximum index in each direction:
   IXMAX=    7   IYMAX=    7   IZMAX=    7
   IXMIN=   -7   IYMIN=   -7   IZMIN=   -7

 serial   3D FFT for wavefunctions
 parallel 3D FFT for charge:
    minimum data exchange during FFTs selected (reduces bandwidth)

 Broyden mixing: mesh for mixing (old mesh)
   NGX = 15   NGY = 15   NGZ = 15
  (NGX  = 60   NGY  = 60   NGZ  = 60)
  gives a total of   3375 points

 initial charge density was supplied:
 charge density of overlapping atoms calculated
 number of electron       8.0000000 magnetization
 keeping initial charge density in first step

 Maximum index for non-local projection operator         4897
 Maximum index for augmentation-charges        32181 (set IRDMAX)

 First call to EWALD:  gamma=   0.518
 Maximum number of real-space cells 3x 3x 3
 Maximum number of reciprocal cells 3x 3x 3

--------------------------------------- Iteration      1(   1)  ---------------------------------------

 eigenvalue-minimisations  :  1048
 total energy-change (2. order) : 0.4735515E+01  (-0.4000870E+03)
 number of electron       8.0000000 magnetization
 augmentation part        8.0000000 magnetization

 Free energy of the ion-electron system (eV)
  alpha Z        PSCENC =         6.08881246
  Ewald energy   TEWEN  =      -228.56352493
  -Hartree energ DENC   =       -11.07014067
  -exchange      EXHF   =         0.00000000
  -V(xc)+E(xc)   XCENC  =       -18.88190738
  PAW double counting   =       176.77094182     -141.06103538
  entropy T*S    EENTRO =        -0.00005319
  eigenvalues    EBANDS =        15.31971926
  atomic energy  EATOM  =       206.13270273
  Solvation  Ediel_sol  =         0.00000000
  free energy    TOTEN  =         4.73551473 eV

  energy without entropy =        4.73556792  energy(sigma->0) =        4.73553246

[...]

 eigenvalue-minimisations  :  1296
 total energy-change (2. order) :-0.1538084E+02  (-0.1403761E+02)
 number of electron       8.0000000 magnetization
 augmentation part        8.0000000 magnetization

[...]

 Broyden mixing:
  rms(total) = 0.30168E+00    rms(broyden)= 0.30168E+00
  rms(prec ) = 0.86856E+00
  weight for this iteration     100.00

[...]

 eigenvalues of (default mixing * dielectric matrix)
  average eigenvalue GAMMA=   2.4396
  2.4396

[...]

 average (electrostatic) potential at core
  the test charge radii are     1.1243
  (the norm of the test charge is              1.0000)
       1 -67.0430       2 -67.0430

 E-fermi :   5.5396     XC(G=0):  -9.3994     alpha+bet :-11.6158

 Fermi energy:         5.5395559471

 k-point     1 :       0.0000    0.0000    0.0000
  band No.  band energies     occupation
      1      -6.4980      2.00000
      2       5.4654      1.94696
      3       5.4654      1.94696
      4       5.4654      1.94696
      5       8.0307     -0.00000
      6       8.0307     -0.00000
      7       8.0307     -0.00000
      8       8.8327      0.00000

[...]

 soft charge-density along one line, spin component           1
         0         1         2         3         4         5         6         7         8         9
 total charge-density along one line

------------------------ aborting loop because EDIFF is reached ----------------------------------------

  FORCE on cell =-STRESS in cart. coord.  units (eV):
  Direction    XX          YY          ZZ          XY          YZ          ZX
  Alpha Z     6.08881     6.08881     6.08881
  Ewald     -76.18788   -76.18788   -76.18788    -0.00000     0.00000    -0.00000
  Hartree     4.97513     4.97513     4.97513     0.00000     0.00000     0.00000
  E(xc)     -25.16015   -25.16015   -25.16015     0.00000     0.00000     0.00000
  Local     -26.45199   -26.45199   -26.45199    -0.00000    -0.00000    -0.00000
  n-local    73.72994    68.41354    72.43595    -1.21287     0.51475     2.05127
  augment   -11.05981   -11.05981   -11.05981     0.00000     0.00000     0.00000
  Kinetic    56.18306    55.19593    58.94514    -0.62069     1.02108     3.55206
  Fock        0.00000     0.00000     0.00000     0.00000     0.00000     0.00000
  Total       0.50532     0.50532     0.50532     0.00000     0.00000     0.00000
  in kB      20.22735    20.22735    20.22735     0.00000     0.00000     0.00000

 VOLUME and BASIS-vectors are now :
  energy-cutoff  :      520.00
  volume of cell :       40.03
      direct lattice vectors                 reciprocal lattice vectors
     2.715000000  2.715000000  0.000000000     0.184162063  0.184162063 -0.184162063
     0.000000000  2.715000000  2.715000000    -0.184162063  0.184162063  0.184162063
     2.715000000  0.000000000  2.715000000     0.184162063 -0.184162063  0.184162063

[...]

 FORCES acting on ions
    electron-ion (+dipol)            ewald-force                    non-local-force                 convergence-correction
   0.281E-07 0.275E-07 0.281E-07   -.326E-14 0.274E-14 0.141E-14   -.435E-16 -.367E-16 -.366E-16   -.523E-09 -.523E-09 -.523E-09
   -.281E-07 -.275E-07 -.281E-07   0.284E-14 -.258E-14 -.126E-14   0.347E-16 0.180E-16 0.139E-16   0.523E-09 0.523E-09 0.523E-09
   -.522E-13 -.128E-13 -.187E-13   -.426E-15 0.164E-15 0.147E-15   -.877E-17 -.187E-16 -.226E-16   0.865E-15 -.101E-14 -.170E-14

 POSITION                                       TOTAL-FORCE (eV/Angst)
      0.00000      0.00000      0.00000         0.000000      0.000000      0.000000
      1.35750      1.35750      1.35750        -0.000000     -0.000000     -0.000000
    total drift:                               -0.000000     -0.000000     -0.000000

  FREE ENERGIE OF THE ION-ELECTRON SYSTEM (eV)
  free  energy   TOTEN  =       -10.84113320 eV

  energy  without entropy=      -10.84116651  energy(sigma->0) =      -10.84114430

[...]

 d Force = 0.0000000E+00[ 0.000E+00, 0.000E+00]  d Energy = 0.2966270E-02-0.297E-02
 d Force = 0.0000000E+00[ 0.000E+00, 0.000E+00]  d Ewald  =-0.2752418E+01 0.275E+01

 Steepest descent step on ions:
 trial-energy change:   -0.002966  1 .order   -0.003237   -0.018478    0.012005
  (g-gl).g = 0.185E-01      g.g   = 0.185E-01  gl.gl    = 0.000E+00
 g(Force)  = 0.147E-47   g(Stress)= 0.185E-01 ortho     = 0.000E+00
 gamma     =   0.00000
 trial     =   1.00000
 opt step  =   0.59334  (harmonic =   0.60618) maximal distance =0.00000000
 next E    =   -10.846559   (d E  =  -0.00543)

[...]

 eigenvalue-minimisations  :  1272
 total energy-change (2. order) : 0.3932668E-03  (-0.8445370E-04)
 number of electron       8.0000000 magnetization
 augmentation part       -0.4740741 magnetization

[...]

 Broyden mixing:
  rms(total) = 0.15065E-03    rms(broyden)= 0.15064E-03
  rms(prec ) = 0.35399E-03
  weight for this iteration     100.00

 eigenvalues of (default mixing * dielectric matrix)
  average eigenvalue GAMMA=   2.0302
  1.1368  2.2528  2.7012

[...]

--------------------------------------- Iteration      3(   5)  ---------------------------------------

 eigenvalue-minimisations  :  1088
 total energy-change (2. order) :-0.6926101E-06  (-0.2227344E-07)
 number of electron       8.0000000 magnetization
 augmentation part       -0.4740836 magnetization

 Free energy of the ion-electron system (eV)
  alpha Z        PSCENC =         5.95859365
  Ewald energy   TEWEN  =      -226.92237264
  -Hartree energ DENC   =       -15.18729345
  -exchange      EXHF   =         0.00000000
  -V(xc)+E(xc)   XCENC  =       -18.31364777
  PAW double counting   =       252.90475036     -217.45096998
  entropy T*S    EENTRO =         0.00003544
  eigenvalues    EBANDS =         2.03172900
  atomic energy  EATOM  =       206.13270273
  Solvation  Ediel_sol  =         0.00000000
  free energy    TOTEN  =       -10.84647266 eV

  energy without entropy =      -10.84650810  energy(sigma->0) =      -10.84648447

 average (electrostatic) potential at core
  the test charge radii are     1.1243
  (the norm of the test charge is              1.0000)
       1 -67.2654       2 -67.2654

 E-fermi :   5.3297     XC(G=0):  -9.3149     alpha+bet :-11.3674

 Fermi energy:         5.3297337512

[...]

 k-point    56 :      -0.2727    0.4545    0.1818
  band No.  band energies     occupation
      1      -2.7141      2.00000
      2      -1.9865      2.00000
      3       1.2278      2.00000
      4       1.9125      2.00000
      5       8.5920      0.00000
      6       9.8685      0.00000
      7      10.5741      0.00000
      8      10.5842      0.00000

 soft charge-density along one line, spin component           1
         0         1         2         3         4         5         6         7         8         9
 total charge-density along one line

------------------------ aborting loop because EDIFF is reached ----------------------------------------

  FORCE on cell =-STRESS in cart. coord.  units (eV):
  Direction    XX          YY          ZZ          XY          YZ          ZX
  Alpha Z     5.95859     5.95859     5.95859
  Ewald     -75.64082   -75.64082   -75.64082    -0.00000     0.00000    -0.00000
  Hartree     5.06225     5.06225     5.06225     0.00000     0.00000     0.00000
  E(xc)     -25.03593   -25.03593   -25.03593     0.00000     0.00000     0.00000
  Local     -26.72632   -26.72632   -26.72632     0.00000     0.00000     0.00000
  n-local    73.35241    68.06087    72.06403    -1.18137     0.49690     2.00863
  augment   -11.04500   -11.04500   -11.04500     0.00000     0.00000     0.00000
  Kinetic    55.85790    54.53854    58.43971    -0.65904     1.01873     3.55193
  Fock        0.00000     0.00000     0.00000     0.00000     0.00000     0.00000
  Total       0.01058     0.01058     0.01058    -0.00000     0.00000    -0.00000
  in kB       0.41445     0.41445     0.41445    -0.00000     0.00000    -0.00000

 VOLUME and BASIS-vectors are now :
  energy-cutoff  :      520.00
  volume of cell :       40.90
      direct lattice vectors                 reciprocal lattice vectors
     2.734635474  2.734635474  0.000000000     0.182839726  0.182839726 -0.182839726
     0.000000000  2.734635474  2.734635474    -0.182839726  0.182839726  0.182839726
     2.734635474  0.000000000  2.734635474     0.182839726 -0.182839726  0.182839726

  length of vectors
     3.867358576  3.867358576  3.867358576     0.316687695  0.316687695  0.316687695

 FORCES acting on ions
    electron-ion (+dipol)            ewald-force                    non-local-force                 convergence-correction
   0.342E-07 0.328E-07 0.342E-07   -.109E-14 0.501E-14 0.428E-15   0.812E-16 0.149E-16 0.257E-16   -.393E-09 -.393E-09 -.393E-09
   -.342E-07 -.328E-07 -.342E-07   0.145E-14 -.474E-14 -.628E-15   -.870E-16 -.193E-16 -.385E-16   0.393E-09 0.393E-09 0.393E-09
   -.470E-13 -.125E-13 -.432E-14   0.364E-15 0.273E-15 -.199E-15   -.583E-17 -.432E-17 -.128E-16   -.518E-15 0.110E-14 -.187E-14

 POSITION                                       TOTAL-FORCE (eV/Angst)
      0.00000      0.00000      0.00000        -0.000000      0.000000     -0.000000
      1.36732      1.36732      1.36732         0.000000     -0.000000      0.000000
    total drift:                               -0.000000     -0.000000     -0.000000

  FREE ENERGIE OF THE ION-ELECTRON SYSTEM (eV)
  free  energy   TOTEN  =       -10.84647266 eV

  energy  without entropy=      -10.84650810  energy(sigma->0) =      -10.84648447

 d Force = 0.0000000E+00[ 0.000E+00, 0.000E+00]  d Energy = 0.2373191E-02-0.237E-02
 d Force = 0.0000000E+00[ 0.000E+00, 0.000E+00]  d Ewald  = 0.1111265E+01-0.111E+01

 reached required accuracy - stopping structural energy minimisation
 writing wavefunctions