 vasp.6.3.2 27Jun22 (build Dec 02 2024 22:47:12) complex

 executed on             LinuxIFC date 2024.12.19  22:05:28

 INCAR:
   SYSTEM = DFT Groundstate Calculation
   ENCUT = 520
   IBRION = 2
   ISIF = 3
   ISMEAR = 0
   SIGMA = 0.05
   EDIFF = 1E-8
   KSPACING = 0.1
   ALGO = Normal
   LREAL = Auto

 POTCAR:   PAW_PBE Si 05Jan2001
|           W    W    AA    RRRRR   N    N  II  N    N   GGGG   !!!           |
|           W    W   A  A   R    R  NN   N  II  NN   N  G    G  !!!           |
|           W    W  A    A  R    R  N N  N  II  N N  N  G       !!!           |
|           W WW W  AAAAAA  RRRRR   N  N N  II  N  N N  G  GGG   !            |
|           WW  WW  A    A  R   R   N   NN  II  N   NN  G    G                |
|           W    W  A    A  R    R  N    N  II  N    N   GGGG   !!!           |
|     For optimal performance we recommend to set                             |
|       NCORE = 2 up to number-of-cores-per-socket                            |
|     This setting can greatly improve the performance of VASP for DFT.       |
|     The default, NCORE=1 might be grossly inefficient on modern             |
|     multi-core architectures or massively parallel machines. Do your        |
|     Unfortunately you need to use the default for GW and RPA                |
|     calculations (for HF NCORE is supported but not extensively tested      |
|     yet).                                                                   |

 POTCAR:   PAW_PBE Si 05Jan2001
   VRHFIN =Si: s2p2

   TITEL  = PAW_PBE Si 05Jan2001
   POMASS =   28.085; ZVAL   =    4.000    mass and valenz
   ENMAX  =  245.345; ENMIN  =  184.009 eV
   QCUT   =   -4.246; QGAM   =    8.493    optimization parameters

   Description
     l     E      TYP  RCUT    TYP  RCUT
     0   .000     23  1.900
     0   .000     23  1.900
     1   .000     23  1.900
     1   .000     23  1.900
     2   .000      7  1.900

 Optimization of the real space projectors (new method)

 maximal supplied QI-value         = 19.84
 optimisation between [QCUT,QGAM] = [ 11.51, 23.22] = [ 37.09,150.92] Ry
 Optimized for a Real-space Cutoff    1.08 Angstroem

   l    n(q)    QCUT    max X(q) W(low)/X(q) W(high)/X(q)  e(spline)
   0      7    11.508     8.708    0.43E-04    0.15E-04    0.69E-08
   0      7    11.508   106.241    0.42E-03    0.41E-03    0.87E-07
   1      7    11.508     5.901    0.37E-04    0.76E-04    0.15E-07
   1      7    11.508    73.241    0.48E-03    0.68E-04    0.67E-07
 PAW_PBE Si 05Jan2001                   :

 POSCAR: fcc Si:
  positions in cartesian coordinates
 exchange correlation table for  LEXCH =        8
   RHO(1)=    0.500       N(1)  =     2000
   RHO(2)=  100.500       N(2)  =     4000

 ion  position               nearest neighbor table
   1  0.000  0.000  0.000-

  LATTYP: Found a face centered cubic cell.
 ALAT       =     3.9000000000

  Lattice vectors:

 A1 = (   1.9500000000,   1.9500000000,   0.0000000000)
 A2 = (   0.0000000000,   1.9500000000,   1.9500000000)
 A3 = (   1.9500000000,   0.0000000000,   1.9500000000)

Analysis of symmetry for initial positions (statically):
 Subroutine PRICEL returns:
 Original cell was already a primitive cell.

 Routine SETGRP: Setting up the symmetry group for a
 face centered cubic supercell.

 Subroutine GETGRP returns: Found 48 space group operations
 (whereof 48 operations were pure point group operations)
 out of a pool of 48 trial point group operations.

The static configuration has the point symmetry O_h .

Analysis of symmetry for dynamics (positions and initial velocities):
 Subroutine PRICEL returns:
 Original cell was already a primitive cell.

 Routine SETGRP: Setting up the symmetry group for a
 face centered cubic supercell.

 Subroutine GETGRP returns: Found 48 space group operations
 (whereof 48 operations were pure point group operations)
 out of a pool of 48 trial point group operations.

The dynamic configuration has the point symmetry O_h .

 Subroutine INISYM returns: Found 48 space group operations
 (whereof 48 operations are pure point group operations),
 and found     1 'primitive' translations

                                     Primitive cell

  volume of cell :      14.8297

  direct lattice vectors                    reciprocal lattice vectors
     1.950000000  1.950000000  0.000000000     0.256410256  0.256410256 -0.256410256
     0.000000000  1.950000000  1.950000000    -0.256410256  0.256410256  0.256410256
     1.950000000  0.000000000  1.950000000     0.256410256 -0.256410256  0.256410256

  length of vectors
     2.757716447  2.757716447  2.757716447     0.444115592  0.444115592  0.444115592

  position of ions in fractional coordinates (direct lattice)
     0.000000000  0.000000000  0.000000000

  ion indices of the primitive-cell ions
   primitive index   ion index
                 1           1

Automatic generation of k-mesh.
 Grid dimensions derived from KSPACING:
 generate k-points for:   28   28   28

 Generating k-lattice:

  Cartesian coordinates                     Fractional coordinates (reciprocal lattice)
     0.009157509  0.009157509 -0.009157509     0.035714286 -0.000000000 -0.000000000
    -0.009157509  0.009157509  0.009157509    -0.000000000  0.035714286  0.000000000
     0.009157509 -0.009157509  0.009157509     0.000000000  0.000000000  0.035714286

  Length of vectors
     0.015861271  0.015861271  0.015861271

  Shift w.r.t. Gamma in fractional coordinates (k-lattice)
     0.000000000  0.000000000  0.000000000

 Subroutine IBZKPT returns following result:

 Found    624 irreducible k-points:

 Following reciprocal coordinates:
            Coordinates               Weight
  0.000000  0.000000  0.000000      1.000000
  0.035714  0.000000 -0.000000      8.000000
  0.071429 -0.000000  0.000000      8.000000
  0.107143 -0.000000 -0.000000      8.000000
  0.142857  0.000000  0.000000      8.000000
  0.178571 -0.000000 -0.000000      8.000000
  0.214286  0.000000  0.000000      8.000000
  0.250000 -0.000000  0.000000      8.000000
  0.285714  0.000000 -0.000000      8.000000
  0.321429  0.000000  0.000000      8.000000
  0.357143 -0.000000 -0.000000      8.000000
  0.392857  0.000000  0.000000      8.000000
  0.428571  0.000000 -0.000000      8.000000
  0.464286  0.000000  0.000000      8.000000
  0.500000 -0.000000  0.000000      4.000000
  0.035714  0.035714  0.000000      6.000000
  0.071429  0.035714 -0.000000     24.000000
  0.107143  0.035714  0.000000     24.000000
  0.142857  0.035714 -0.000000     24.000000
  0.178571  0.035714  0.000000     24.000000
  0.214286  0.035714 -0.000000     24.000000
  0.250000  0.035714  0.000000     24.000000
  0.285714  0.035714  0.000000     24.000000
  0.321429  0.035714 -0.000000     24.000000
  0.357143  0.035714  0.000000     24.000000
  0.392857  0.035714 -0.000000     24.000000
  0.428571  0.035714  0.000000     24.000000
  0.464286  0.035714 -0.000000     24.000000
  0.500000  0.035714  0.000000     24.000000
 -0.464286  0.035714 -0.000000     24.000000
 -0.428571  0.035714 -0.000000     24.000000
 -0.392857  0.035714  0.000000     24.000000
 -0.357143  0.035714 -0.000000     24.000000
 -0.321429  0.035714  0.000000     24.000000
 -0.285714  0.035714 -0.000000     24.000000
 -0.250000  0.035714  0.000000     24.000000
 -0.214286  0.035714 -0.000000     24.000000
 -0.178571  0.035714 -0.000000     24.000000
 -0.142857  0.035714  0.000000     24.000000
 -0.107143  0.035714 -0.000000     24.000000
 -0.071429  0.035714  0.000000     24.000000
 -0.035714  0.035714 -0.000000     12.000000
  0.071429  0.071429  0.000000      6.000000
  0.107143  0.071429 -0.000000     24.000000
  0.142857  0.071429  0.000000     24.000000
  0.178571  0.071429 -0.000000     24.000000
  0.214286  0.071429  0.000000     24.000000
  0.250000  0.071429 -0.000000     24.000000
  0.285714  0.071429  0.000000     24.000000
  0.321429  0.071429  0.000000     24.000000
  0.357143  0.071429 -0.000000     24.000000
  0.392857  0.071429  0.000000     24.000000
  0.428571  0.071429 -0.000000     24.000000
  0.464286  0.071429  0.000000     24.000000
  0.500000  0.071429 -0.000000     24.000000
 -0.464286  0.071429  0.000000     24.000000
 -0.428571  0.071429 -0.000000     24.000000
 -0.392857  0.071429 -0.000000     24.000000
 -0.357143  0.071429  0.000000     24.000000
 -0.321429  0.071429 -0.000000     24.000000
[...]
 -0.321429  0.428571  0.178571     48.000000
 -0.285714  0.428571  0.178571     48.000000
 -0.250000  0.428571  0.178571     24.000000
 -0.357143  0.464286  0.178571     24.000000
 -0.321429  0.464286  0.178571     48.000000
 -0.285714  0.464286  0.178571     24.000000
 -0.321429  0.500000  0.178571     12.000000
 -0.357143  0.428571  0.214286     24.000000
 -0.321429  0.428571  0.214286     48.000000
 -0.285714  0.428571  0.214286     24.000000
 -0.321429  0.464286  0.214286     24.000000
 -0.285714  0.464286  0.214286     48.000000
 -0.250000  0.464286  0.214286     24.000000
 -0.285714  0.500000  0.214286     12.000000
 -0.250000  0.500000  0.250000      6.000000

 Following cartesian coordinates:
            Coordinates               Weight
  0.000000  0.000000  0.000000      1.000000
  0.035714  0.035714 -0.035714      8.000000
  0.071429  0.071429 -0.071429      8.000000
  0.107143  0.107143 -0.107143      8.000000
  0.142857  0.142857 -0.142857      8.000000
  0.178571  0.178571 -0.178571      8.000000
  0.214286  0.214286 -0.214286      8.000000
  0.250000  0.250000 -0.250000      8.000000
  0.285714  0.285714 -0.285714      8.000000
  0.321429  0.321429 -0.321429      8.000000
  0.357143  0.357143 -0.357143      8.000000
  0.392857  0.392857 -0.392857      8.000000
  0.428571  0.428571 -0.428571      8.000000
  0.464286  0.464286 -0.464286      8.000000
  0.500000  0.500000 -0.500000      4.000000
  0.000000  0.071429  0.000000      6.000000
  0.035714  0.107143 -0.035714     24.000000
  0.071429  0.142857 -0.071429     24.000000
  0.107143  0.178571 -0.107143     24.000000
  0.142857  0.214286 -0.142857     24.000000
  0.178571  0.250000 -0.178571     24.000000
  0.214286  0.285714 -0.214286     24.000000
  0.250000  0.321429 -0.250000     24.000000
  0.285714  0.357143 -0.285714     24.000000
  0.321429  0.392857 -0.321429     24.000000
  0.357143  0.428571 -0.357143     24.000000
  0.392857  0.464286 -0.392857     24.000000
  0.428571  0.500000 -0.428571     24.000000
  0.464286  0.535714 -0.464286     24.000000
 -0.500000 -0.428571  0.500000     24.000000
 -0.464286 -0.392857  0.464286     24.000000
 -0.428571 -0.357143  0.428571     24.000000
 -0.392857 -0.321429  0.392857     24.000000
 -0.357143 -0.285714  0.357143     24.000000
 -0.321429 -0.250000  0.321429     24.000000
 -0.285714 -0.214286  0.285714     24.000000
 -0.250000 -0.178571  0.250000     24.000000
 -0.214286 -0.142857  0.214286     24.000000
 -0.178571 -0.107143  0.178571     24.000000
 -0.142857 -0.071429  0.142857     24.000000
 -0.107143 -0.035714  0.107143     24.000000
 -0.071429  0.000000  0.071429     12.000000
  0.000000  0.142857  0.000000      6.000000
  0.035714  0.178571 -0.035714     24.000000
  0.071429  0.214286 -0.071429     24.000000
  0.107143  0.250000 -0.107143     24.000000
[...]
   0.03571429  0.17857143 -0.03571429       0.001
   0.07142857  0.21428571 -0.07142857       0.001
   0.10714286  0.25000000 -0.10714286       0.001
   0.14285714  0.28571429 -0.14285714       0.001
   0.17857143  0.32142857 -0.17857143       0.001
   0.21428571  0.35714286 -0.21428571       0.001
   0.25000000  0.39285714 -0.25000000       0.001
   0.28571429  0.42857143 -0.28571429       0.001
   0.32142857  0.46428571 -0.32142857       0.001
   0.35714286  0.50000000 -0.35714286       0.001
   0.39285714  0.53571429 -0.39285714       0.001
   0.42857143  0.57142857 -0.42857143       0.001
  -0.53571429 -0.39285714  0.53571429       0.001
  -0.50000000 -0.35714286  0.50000000       0.001
  -0.46428571 -0.32142857  0.46428571       0.001
  -0.42857143 -0.28571429  0.42857143       0.001
  -0.39285714 -0.25000000  0.39285714       0.001
[...]
  -0.57142857 -0.07142857  0.92857143       0.002
  -0.53571429 -0.03571429  0.89285714       0.002
  -0.50000000  0.00000000  0.85714286       0.001
  -0.64285714 -0.07142857  1.00000000       0.001
  -0.60714286 -0.03571429  0.96428571       0.002
  -0.57142857  0.00000000  0.92857143       0.001
  -0.64285714  0.00000000  1.00000000       0.001
  -0.57142857 -0.14285714  1.00000000       0.001
  -0.53571429 -0.10714286  0.96428571       0.002
  -0.50000000 -0.07142857  0.92857143       0.001
  -0.57142857 -0.07142857  1.00000000       0.001
  -0.53571429 -0.03571429  0.96428571       0.002
  -0.50000000  0.00000000  0.92857143       0.001
  -0.57142857  0.00000000  1.00000000       0.001
  -0.50000000  0.00000000  1.00000000       0.000

 k-points in reciprocal lattice and weights: read from INCAR
   0.00000000  0.00000000  0.00000000       0.000
   0.03571429  0.00000000 -0.00000000       0.000
   0.07142857 -0.00000000  0.00000000       0.000
   0.10714286 -0.00000000 -0.00000000       0.000
   0.14285714  0.00000000  0.00000000       0.000
   0.17857143 -0.00000000 -0.00000000       0.000
   0.21428571  0.00000000  0.00000000       0.000
   0.25000000 -0.00000000  0.00000000       0.000
   0.28571429  0.00000000 -0.00000000       0.000
   0.32142857  0.00000000  0.00000000       0.000
   0.35714286 -0.00000000 -0.00000000       0.000
   0.39285714  0.00000000  0.00000000       0.000
   0.42857143  0.00000000 -0.00000000       0.000
   0.46428571  0.00000000  0.00000000       0.000
   0.50000000 -0.00000000  0.00000000       0.000
   0.03571429  0.03571429  0.00000000       0.000
   0.07142857  0.03571429 -0.00000000       0.001
   0.10714286  0.03571429  0.00000000       0.001
   0.14285714  0.03571429 -0.00000000       0.001
   0.17857143  0.03571429  0.00000000       0.001
   0.21428571  0.03571429 -0.00000000       0.001
   0.25000000  0.03571429  0.00000000       0.001
   0.28571429  0.03571429  0.00000000       0.001
   0.32142857  0.03571429 -0.00000000       0.001
   0.35714286  0.03571429  0.00000000       0.001
   0.39285714  0.03571429 -0.00000000       0.001
   0.42857143  0.03571429  0.00000000       0.001
   0.46428571  0.03571429 -0.00000000       0.001
   0.50000000  0.03571429  0.00000000       0.001
  -0.46428571  0.03571429 -0.00000000       0.001
  -0.42857143  0.03571429 -0.00000000       0.001
  -0.39285714  0.03571429  0.00000000       0.001
  -0.35714286  0.03571429 -0.00000000       0.001
  -0.32142857  0.03571429  0.00000000       0.001
  -0.28571429  0.03571429 -0.00000000       0.001
  -0.25000000  0.03571429  0.00000000       0.001
  -0.21428571  0.03571429 -0.00000000       0.001
  -0.17857143  0.03571429 -0.00000000       0.001
  -0.14285714  0.03571429  0.00000000       0.001
  -0.10714286  0.03571429 -0.00000000       0.001
  -0.07142857  0.03571429  0.00000000       0.001
  -0.03571429  0.03571429 -0.00000000       0.001
   0.07142857  0.07142857  0.00000000       0.000
   0.10714286  0.07142857 -0.00000000       0.001
   0.14285714  0.07142857  0.00000000       0.001
   0.17857143  0.07142857 -0.00000000       0.001
   0.21428571  0.07142857  0.00000000       0.001
   0.25000000  0.07142857 -0.00000000       0.001
   0.28571429  0.07142857  0.00000000       0.001
   0.32142857  0.07142857  0.00000000       0.001
   0.35714286  0.07142857 -0.00000000       0.001
   0.39285714  0.07142857  0.00000000       0.001
   0.42857143  0.07142857 -0.00000000       0.001
   0.46428571  0.07142857  0.00000000       0.001
   0.50000000  0.07142857 -0.00000000       0.001
  -0.46428571  0.07142857  0.00000000       0.001
  -0.42857143  0.07142857 -0.00000000       0.001
  -0.39285714  0.07142857 -0.00000000       0.001
  -0.35714286  0.07142857  0.00000000       0.001
  -0.32142857  0.07142857 -0.00000000       0.001
[...]
  -0.32142857  0.42857143  0.17857143       0.002
  -0.28571429  0.42857143  0.17857143       0.002
  -0.25000000  0.42857143  0.17857143       0.001
  -0.35714286  0.46428571  0.17857143       0.001
  -0.32142857  0.46428571  0.17857143       0.002
  -0.28571429  0.46428571  0.17857143       0.001
  -0.32142857  0.50000000  0.17857143       0.001
  -0.35714286  0.42857143  0.21428571       0.001
  -0.32142857  0.42857143  0.21428571       0.002
  -0.28571429  0.42857143  0.21428571       0.001
  -0.32142857  0.46428571  0.21428571       0.001
  -0.28571429  0.46428571  0.21428571       0.002
  -0.25000000  0.46428571  0.21428571       0.001
  -0.28571429  0.50000000  0.21428571       0.001
  -0.25000000  0.50000000  0.25000000       0.000

 position of ions in fractional coordinates (direct lattice)
   0.00000000  0.00000000  0.00000000

 position of ions in cartesian coordinates  (Angst):
   0.00000000  0.00000000  0.00000000

 k-point   1 :   0.0000 0.0000 0.0000  plane waves:     411
 k-point   2 :   0.0357 0.0000-0.0000  plane waves:     405
 k-point   3 :   0.0714-0.0000 0.0000  plane waves:     402
 k-point   4 :   0.1071-0.0000-0.0000  plane waves:     396
 k-point   5 :   0.1429 0.0000 0.0000  plane waves:     384
 k-point   6 :   0.1786-0.0000-0.0000  plane waves:     387
 k-point   7 :   0.2143 0.0000 0.0000  plane waves:     386
 k-point   8 :   0.2500-0.0000 0.0000  plane waves:     392
 k-point   9 :   0.2857 0.0000-0.0000  plane waves:     395
 k-point  10 :   0.3214 0.0000 0.0000  plane waves:     401
 k-point  11 :   0.3571-0.0000-0.0000  plane waves:     401
 k-point  12 :   0.3929 0.0000 0.0000  plane waves:     407
 k-point  13 :   0.4286 0.0000-0.0000  plane waves:     401
 k-point  14 :   0.4643 0.0000 0.0000  plane waves:     401
 k-point  15 :   0.5000-0.0000 0.0000  plane waves:     392
 k-point  16 :   0.0357 0.0357 0.0000  plane waves:     407
 k-point  17 :   0.0714 0.0357-0.0000  plane waves:     402
 k-point  18 :   0.1071 0.0357 0.0000  plane waves:     394
 k-point  19 :   0.1429 0.0357-0.0000  plane waves:     389
 k-point  20 :   0.1786 0.0357 0.0000  plane waves:     391
 k-point  21 :   0.2143 0.0357-0.0000  plane waves:     390
 k-point  22 :   0.2500 0.0357 0.0000  plane waves:     392
 k-point  23 :   0.2857 0.0357 0.0000  plane waves:     395
 k-point  24 :   0.3214 0.0357-0.0000  plane waves:     399
 k-point  25 :   0.3571 0.0357 0.0000  plane waves:     401
 k-point  26 :   0.3929 0.0357-0.0000  plane waves:     403
 k-point  27 :   0.4286 0.0357 0.0000  plane waves:     399
 k-point  28 :   0.4643 0.0357-0.0000  plane waves:     397
 k-point  29 :   0.5000 0.0357 0.0000  plane waves:     399
 k-point  30 :  -0.4643 0.0357-0.0000  plane waves:     401
 k-point  31 :  -0.4286 0.0357-0.0000  plane waves:     400
 k-point  32 :  -0.3929 0.0357 0.0000  plane waves:     403
 k-point  33 :  -0.3571 0.0357-0.0000  plane waves:     401
 k-point  34 :  -0.3214 0.0357 0.0000  plane waves:     399
 k-point  35 :  -0.2857 0.0357-0.0000  plane waves:     395
 k-point  36 :  -0.2500 0.0357 0.0000  plane waves:     397
 k-point  37 :  -0.2143 0.0357-0.0000  plane waves:     390
 k-point  38 :  -0.1786 0.0357-0.0000  plane waves:     391
 k-point  39 :  -0.1429 0.0357 0.0000  plane waves:     390
 k-point  40 :  -0.1071 0.0357-0.0000  plane waves:     386
 k-point  41 :  -0.0714 0.0357 0.0000  plane waves:     395
 k-point  42 :  -0.0357 0.0357-0.0000  plane waves:     405
 k-point  43 :   0.0714 0.0714 0.0000  plane waves:     399
 k-point  44 :   0.1071 0.0714-0.0000  plane waves:     393
 k-point  45 :   0.1429 0.0714 0.0000  plane waves:     388
 k-point  46 :   0.1786 0.0714-0.0000  plane waves:     389
 k-point  47 :   0.2143 0.0714 0.0000  plane waves:     388
 k-point  48 :   0.2500 0.0714-0.0000  plane waves:     388
 k-point  49 :   0.2857 0.0714 0.0000  plane waves:     394
 k-point  50 :   0.3214 0.0714 0.0000  plane waves:     397
 k-point  51 :   0.3571 0.0714-0.0000  plane waves:     403
 k-point  52 :   0.3929 0.0714 0.0000  plane waves:     405
 k-point  53 :   0.4286 0.0714-0.0000  plane waves:     403
 k-point  54 :   0.4643 0.0714 0.0000  plane waves:     395
 k-point  55 :   0.5000 0.0714-0.0000  plane waves:     399
 k-point  56 :  -0.4643 0.0714 0.0000  plane waves:     401
 k-point  57 :  -0.4286 0.0714-0.0000  plane waves:     399
 k-point  58 :  -0.3929 0.0714-0.0000  plane waves:     401
 k-point  59 :  -0.3571 0.0714 0.0000  plane waves:     404
 k-point  60 :  -0.3214 0.0714-0.0000  plane waves:     402
[...]
 k-point 610 :  -0.3214 0.4286 0.1786  plane waves:     399
 k-point 611 :  -0.2857 0.4286 0.1786  plane waves:     400
 k-point 612 :  -0.2500 0.4286 0.1786  plane waves:     399
 k-point 613 :  -0.3571 0.4643 0.1786  plane waves:     395
 k-point 614 :  -0.3214 0.4643 0.1786  plane waves:     398
 k-point 615 :  -0.2857 0.4643 0.1786  plane waves:     399
 k-point 616 :  -0.3214 0.5000 0.1786  plane waves:     398
 k-point 617 :  -0.3571 0.4286 0.2143  plane waves:     399
 k-point 618 :  -0.3214 0.4286 0.2143  plane waves:     400
 k-point 619 :  -0.2857 0.4286 0.2143  plane waves:     402
 k-point 620 :  -0.3214 0.4643 0.2143  plane waves:     400
 k-point 621 :  -0.2857 0.4643 0.2143  plane waves:     398
 k-point 622 :  -0.2500 0.4643 0.2143  plane waves:     400
 k-point 623 :  -0.2857 0.5000 0.2143  plane waves:     396
 k-point 624 :  -0.2500 0.5000 0.2500  plane waves:     396

 maximum and minimum number of plane-waves per node :       415      384

 maximum number of plane-waves:       415
 maximum index in each direction:
   IXMAX=    5   IYMAX=    5   IZMAX=    5
   IXMIN=   -5   IYMIN=   -5   IZMIN=   -5

 serial   3D FFT for wavefunctions
 parallel 3D FFT for charge:
    minimum data exchange during FFTs selected (reduces bandwidth)

 Broyden mixing: mesh for mixing (old mesh)
   NGX = 11   NGY = 11   NGZ = 11
  (NGX  = 32   NGY  = 32   NGZ  = 32)
  gives a total of   1331 points

 charge density for first step will be calculated from the start-wavefunctions

 Maximum index for non-local projection operator         1433
 Maximum index for augmentation-charges         1117 (set IRDMAX)

 initial charge from wavefunction
 First call to EWALD:  gamma=   0.721
 Maximum number of real-space cells 3x 3x 3
 Maximum number of reciprocal cells 3x 3x 3

--------------------------------------- Iteration      1(   1)  ---------------------------------------

 eigenvalue-minimisations  :  5008
 total energy-change (2. order) :-0.4887887E+01  (-0.4368814E-14)
 number of electron       3.9999999 magnetization
 augmentation part       -0.2481645 magnetization

 Broyden mixing:
  rms(total) = 0.73068E-08    rms(broyden)= 0.14015E-09
  rms(prec ) = 0.55689E-09
  weight for this iteration     100.00
  WARNING: grid for Broyden might be to small

 Free energy of the ion-electron system (eV)
  alpha Z        PSCENC =         2.26996938
  Ewald energy   TEWEN  =      -135.42777035
  -Hartree energ DENC   =        -0.48604174
  -exchange      EXHF   =         0.00000000
  -V(xc)+E(xc)   XCENC  =        -8.82472799
  PAW double counting   =        33.62589047      -16.03570730
  entropy T*S    EENTRO =        -0.00044303
  eigenvalues    EBANDS =        16.92459242
  atomic energy  EATOM  =       103.06635137
  Solvation  Ediel_sol  =         0.00000000
  free energy    TOTEN  =        -4.88788676 eV

  energy without entropy =       -4.88744373  energy(sigma->0) =       -4.88766525

--------------------------------------- Iteration      1(   2)  ---------------------------------------

 eigenvalue-minimisations  :  5040
 total energy-change (2. order) : 0.1918465E-10  (-0.1591786E-14)
 number of electron       3.9999999 magnetization
 augmentation part       -0.2481645 magnetization

 Free energy of the ion-electron system (eV)
  alpha Z        PSCENC =         2.26996938
  Ewald energy   TEWEN  =      -135.42777035
  -Hartree energ DENC   =        -0.48604174
  -exchange      EXHF   =         0.00000000
  -V(xc)+E(xc)   XCENC  =        -8.82472799
  PAW double counting   =        33.62589047      -16.03570730
  entropy T*S    EENTRO =        -0.00044303
  eigenvalues    EBANDS =        16.92459242
  atomic energy  EATOM  =       103.06635137
  Solvation  Ediel_sol  =         0.00000000
  free energy    TOTEN  =        -4.88788676 eV

  energy without entropy =       -4.88744373  energy(sigma->0) =       -4.88766525

 average (electrostatic) potential at core
  the test charge radii are     0.9892
  (the norm of the test charge is              1.0000)
       1 -80.2440

 E-fermi :   9.8605     XC(G=0): -11.0957     alpha+bet :-16.1732

 Fermi energy:         9.8605102947

 k-point     1 :       0.0000    0.0000    0.0000
  band No.  band energies     occupation
      1      -4.3794      2.00000
      2      20.6927      0.00000
      3      20.6927      0.00000
      4      20.6927      0.00000
      5      21.6823      0.00000
      6      21.6823      0.00000
      7      21.6823      0.00000
      8      26.9627      0.00000

[...]

 k-point   624 :      -0.2500    0.5000    0.2500
  band No.  band energies     occupation
      1       6.8572      2.00000
      2       6.8572      2.00000
      3       7.0010      2.00000
      4       8.4135      2.00000
      5      23.9274      0.00000
      6      24.6529      0.00000
      7      24.6529      0.00000
      8      26.9955      0.00000

 soft charge-density along one line, spin component           1
         0         1         2         3         4         5         6         7         8         9
 total charge-density along one line

------------------------ aborting loop because EDIFF is reached ----------------------------------------

  FORCE on cell =-STRESS in cart. coord.  units (eV):
  Direction    XX          YY          ZZ          XY          YZ          ZX
  Alpha Z     2.26997     2.26997     2.26997
  Ewald     -45.14259   -45.14259   -45.14259    -0.00000     0.00000    -0.00000
  Hartree     0.16201     0.16201     0.16201     0.00000     0.00000     0.00000
  E(xc)     -12.61818   -12.61818   -12.61818    -0.00000    -0.00000    -0.00000
  Local      -5.18139    -5.18139    -5.18139     0.00001     0.00001     0.00001
  n-local    39.02651    37.03385    39.21507    -0.64210     0.60844     1.00737
  augment    -6.32575    -6.32575    -6.32575    -0.00001    -0.00001    -0.00001
  Kinetic    20.79148    39.68837    24.27023     9.94746    -8.53507   -16.25216
  Fock        0.00000     0.00000     0.00000     0.00000     0.00000     0.00000
  Total      -0.16076    -0.16076    -0.16076     0.00000     0.00000     0.00000
  in kB     -17.36844   -17.36844   -17.36844     0.00000     0.00000     0.00000

 VOLUME and BASIS-vectors are now :
  energy-cutoff  :      520.00
  volume of cell :       14.83
      direct lattice vectors                 reciprocal lattice vectors
     1.950000000  1.950000000  0.000000000     0.256410256  0.256410256 -0.256410256
     0.000000000  1.950000000  1.950000000    -0.256410256  0.256410256  0.256410256
     1.950000000  0.000000000  1.950000000     0.256410256 -0.256410256  0.256410256

  length of vectors
     2.757716447  2.757716447  2.757716447     0.444115592  0.444115592  0.444115592

 FORCES acting on ions
    electron-ion (+dipol)            ewald-force                    non-local-force                 convergence-correction
   0.154E-15 0.101E-15 0.733E-16   -.162E-15 0.162E-15 0.172E-15   0.401E-27 -.185E-27 -.406E-27   0.428E-16 0.405E-16 -.558E-16
   0.154E-15 0.101E-15 0.733E-16   -.162E-15 0.162E-15 0.172E-15   0.401E-27 -.185E-27 -.406E-27   0.428E-16 0.405E-16 -.558E-16

 POSITION                                       TOTAL-FORCE (eV/Angst)
      0.00000      0.00000      0.00000        -0.000000      0.000000     -0.000000
    total drift:                                0.000000      0.000000      0.000000

  FREE ENERGIE OF THE ION-ELECTRON SYSTEM (eV)
  free  energy   TOTEN  =        -4.88788676 eV

  energy  without entropy=       -4.88744373  energy(sigma->0) =       -4.88766525

 writing wavefunctions